p cnf 336 17072
-1 -2 -3 -4 0
-1 -2 -3 -6 0
-1 -2 -3 -8 0
-1 -2 -4 -7 0
-1 -2 -4 -11 0
-1 -2 -5 -8 0
-1 -2 -5 -10 0
-1 -2 -5 -14 0
-1 -2 -6 -9 0
-1 -2 -6 -13 0
-1 -2 -6 -17 0
-1 -2 -7 -10 0
-1 -2 -7 -16 0
-1 -2 -7 -20 0
-1 -2 -8 -11 0
-1 -2 -8 -19 0
-1 -2 -8 -23 0
-1 -2 -9 -12 0
-1 -2 -9 -22 0
-1 -2 -9 -26 0
-1 -2 -10 -13 0
-1 -2 -10 -25 0
-1 -2 -10 -29 0
-1 -2 -11 -14 0
-1 -2 -11 -28 0
-1 -2 -11 -32 0
-1 -2 -12 -15 0
-1 -2 -12 -31 0
-1 -2 -12 -35 0
-1 -2 -13 -16 0
-1 -2 -13 -34 0
-1 -2 -13 -38 0
-1 -2 -14 -17 0
-1 -2 -14 -37 0
-1 -2 -14 -41 0
-1 -2 -15 -18 0
-1 -2 -15 -40 0
-1 -2 -15 -44 0
-1 -2 -16 -19 0
-1 -2 -16 -43 0
-1 -2 -16 -47 0
-1 -2 -17 -20 0
-1 -2 -17 -46 0
-1 -2 -17 -50 0
-1 -2 -18 -21 0
-1 -2 -18 -49 0
-1 -2 -19 -22 0
-1 -2 -20 -23 0
-1 -2 -21 -24 0
-1 -2 -22 -25 0
-1 -2 -23 -26 0
-1 -2 -24 -27 0
-1 -2 -25 -28 0
-1 -2 -26 -29 0
-1 -2 -27 -30 0
-1 -2 -28 -31 0
-1 -2 -29 -32 0
-1 -2 -30 -33 0
-1 -2 -31 -34 0
-1 -2 -32 -35 0
-1 -2 -33 -36 0
-1 -2 -34 -37 0
-1 -2 -35 -38 0
-1 -2 -36 -39 0
-1 -2 -37 -40 0
-1 -2 -38 -41 0
-1 -2 -39 -42 0
-1 -2 -40 -43 0
-1 -2 -41 -44 0
-1 -2 -42 -45 0
-1 -2 -43 -46 0
-1 -2 -44 -47 0
-1 -2 -45 -48 0
-1 -2 -46 -49 0
-1 -2 -47 -50 0
-1 -3 -4 -10 0
-1 -3 -4 -12 0
-1 -3 -5 -7 0
-1 -3 -5 -11 0
-1 -3 -5 -15 0
-1 -3 -6 -10 0
-1 -3 -6 -12 0
-1 -3 -6 -18 0
-1 -3 -7 -13 0
-1 -3 -7 -21 0
-1 -3 -8 -14 0
-1 -3 -8 -16 0
-1 -3 -8 -24 0
-1 -3 -9 -15 0
-1 -3 -9 -19 0
-1 -3 -9 -27 0
-1 -3 -10 -16 0
-1 -3 -10 -22 0
-1 -3 -10 -30 0
-1 -3 -11 -17 0
-1 -3 -11 -25 0
-1 -3 -11 -33 0
-1 -3 -12 -18 0
-1 -3 -12 -28 0
-1 -3 -12 -36 0
-1 -3 -13 -19 0
-1 -3 -13 -31 0
-1 -3 -13 -39 0
-1 -3 -14 -20 0
-1 -3 -14 -34 0
-1 -3 -14 -42 0
-1 -3 -15 -21 0
-1 -3 -15 -37 0
-1 -3 -15 -45 0
-1 -3 -16 -22 0
-1 -3 -16 -40 0
-1 -3 -16 -48 0
-1 -3 -17 -23 0
-1 -3 -17 -43 0
-1 -3 -18 -24 0
-1 -3 -18 -46 0
-1 -3 -19 -25 0
-1 -3 -19 -49 0
-1 -3 -20 -26 0
-1 -3 -21 -27 0
-1 -3 -22 -28 0
-1 -3 -23 -29 0
-1 -3 -24 -30 0
-1 -3 -25 -31 0
-1 -3 -26 -32 0
-1 -3 -27 -33 0
-1 -3 -28 -34 0
-1 -3 -29 -35 0
-1 -3 -30 -36 0
-1 -3 -31 -37 0
-1 -3 -32 -38 0
-1 -3 -33 -39 0
-1 -3 -34 -40 0
-1 -3 -35 -41 0
-1 -3 -36 -42 0
-1 -3 -37 -43 0
-1 -3 -38 -44 0
-1 -3 -39 -45 0
-1 -3 -40 -46 0
-1 -3 -41 -47 0
-1 -3 -42 -48 0
-1 -3 -43 -49 0
-1 -3 -44 -50 0
-1 -4 -5 -6 0
-1 -4 -5 -14 0
-1 -4 -5 -16 0
-1 -4 -6 -7 0
-1 -4 -6 -15 0
-1 -4 -6 -19 0
-1 -4 -7 -8 0
-1 -4 -7 -10 0
-1 -4 -7 -16 0
-1 -4 -7 -22 0
-1 -4 -8 -9 0
-1 -4 -8 -13 0
-1 -4 -8 -17 0
-1 -4 -8 -25 0
-1 -4 -9 -10 0
-1 -4 -9 -16 0
-1 -4 -9 -18 0
-1 -4 -9 -28 0
-1 -4 -10 -11 0
-1 -4 -10 -19 0
-1 -4 -10 -31 0
-1 -4 -11 -12 0
-1 -4 -11 -20 0
-1 -4 -11 -22 0
-1 -4 -11 -34 0
-1 -4 -12 -13 0
-1 -4 -12 -21 0
-1 -4 -12 -25 0
-1 -4 -12 -37 0
-1 -4 -13 -14 0
-1 -4 -13 -22 0
-1 -4 -13 -28 0
-1 -4 -13 -40 0
-1 -4 -14 -15 0
-1 -4 -14 -23 0
-1 -4 -14 -31 0
-1 -4 -14 -43 0
-1 -4 -15 -16 0
-1 -4 -15 -24 0
-1 -4 -15 -34 0
-1 -4 -15 -46 0
-1 -4 -16 -17 0
-1 -4 -16 -25 0
-1 -4 -16 -37 0
-1 -4 -16 -49 0
-1 -4 -17 -18 0
-1 -4 -17 -26 0
-1 -4 -17 -40 0
-1 -4 -18 -19 0
-1 -4 -18 -27 0
-1 -4 -18 -43 0
-1 -4 -19 -20 0
-1 -4 -19 -28 0
-1 -4 -19 -46 0
-1 -4 -20 -21 0
-1 -4 -20 -29 0
-1 -4 -20 -49 0
-1 -4 -21 -22 0
-1 -4 -21 -30 0
-1 -4 -22 -23 0
-1 -4 -22 -31 0
-1 -4 -23 -24 0
-1 -4 -23 -32 0
-1 -4 -24 -25 0
-1 -4 -24 -33 0
-1 -4 -25 -26 0
-1 -4 -25 -34 0
-1 -4 -26 -27 0
-1 -4 -26 -35 0
-1 -4 -27 -28 0
-1 -4 -27 -36 0
-1 -4 -28 -29 0
-1 -4 -28 -37 0
-1 -4 -29 -30 0
-1 -4 -29 -38 0
-1 -4 -30 -31 0
-1 -4 -30 -39 0
-1 -4 -31 -32 0
-1 -4 -31 -40 0
-1 -4 -32 -33 0
-1 -4 -32 -41 0
-1 -4 -33 -34 0
-1 -4 -33 -42 0
-1 -4 -34 -35 0
-1 -4 -34 -43 0
-1 -4 -35 -36 0
-1 -4 -35 -44 0
-1 -4 -36 -37 0
-1 -4 -36 -45 0
-1 -4 -37 -38 0
-1 -4 -37 -46 0
-1 -4 -38 -39 0
-1 -4 -38 -47 0
-1 -4 -39 -40 0
-1 -4 -39 -48 0
-1 -4 -40 -41 0
-1 -4 -40 -49 0
-1 -4 -41 -42 0
-1 -4 -41 -50 0
-1 -4 -42 -43 0
-1 -4 -43 -44 0
-1 -4 -44 -45 0
-1 -4 -45 -46 0
-1 -4 -46 -47 0
-1 -4 -47 -48 0
-1 -4 -48 -49 0
-1 -4 -49 -50 0
-1 -5 -6 -18 0
-1 -5 -6 -20 0
-1 -5 -7 -19 0
-1 -5 -7 -23 0
-1 -5 -8 -10 0
-1 -5 -8 -20 0
-1 -5 -8 -26 0
-1 -5 -9 -13 0
-1 -5 -9 -21 0
-1 -5 -9 -29 0
-1 -5 -10 -16 0
-1 -5 -10 -22 0
-1 -5 -10 -32 0
-1 -5 -11 -19 0
-1 -5 -11 -23 0
-1 -5 -11 -35 0
-1 -5 -12 -22 0
-1 -5 -12 -24 0
-1 -5 -12 -38 0
-1 -5 -13 -25 0
-1 -5 -13 -41 0
-1 -5 -14 -26 0
-1 -5 -14 -28 0
-1 -5 -14 -44 0
-1 -5 -15 -27 0
-1 -5 -15 -31 0
-1 -5 -15 -47 0
-1 -5 -16 -28 0
-1 -5 -16 -34 0
-1 -5 -16 -50 0
-1 -5 -17 -29 0
-1 -5 -17 -37 0
-1 -5 -18 -30 0
-1 -5 -18 -40 0
-1 -5 -19 -31 0
-1 -5 -19 -43 0
-1 -5 -20 -32 0
-1 -5 -20 -46 0
-1 -5 -21 -33 0
-1 -5 -21 -49 0
-1 -5 -22 -34 0
-1 -5 -23 -35 0
-1 -5 -24 -36 0
-1 -5 -25 -37 0
-1 -5 -26 -38 0
-1 -5 -27 -39 0
-1 -5 -28 -40 0
-1 -5 -29 -41 0
-1 -5 -30 -42 0
-1 -5 -31 -43 0
-1 -5 -32 -44 0
-1 -5 -33 -45 0
-1 -5 -34 -46 0
-1 -5 -35 -47 0
-1 -5 -36 -48 0
-1 -5 -37 -49 0
-1 -5 -38 -50 0
-1 -6 -7 -8 0
-1 -6 -7 -22 0
-1 -6 -7 -24 0
-1 -6 -8 -23 0
-1 -6 -8 -27 0
-1 -6 -9 -10 0
-1 -6 -9 -24 0
-1 -6 -9 -30 0
-1 -6 -10 -13 0
-1 -6 -10 -25 0
-1 -6 -10 -33 0
-1 -6 -11 -16 0
-1 -6 -11 -26 0
-1 -6 -11 -36 0
-1 -6 -12 -19 0
-1 -6 -12 -27 0
-1 -6 -12 -39 0
-1 -6 -13 -22 0
-1 -6 -13 -28 0
-1 -6 -13 -42 0
-1 -6 -14 -25 0
-1 -6 -14 -29 0
-1 -6 -14 -45 0
-1 -6 -15 -28 0
-1 -6 -15 -30 0
-1 -6 -15 -48 0
-1 -6 -16 -31 0
-1 -6 -17 -32 0
-1 -6 -17 -34 0
-1 -6 -18 -33 0
-1 -6 -18 -37 0
-1 -6 -19 -34 0
-1 -6 -19 -40 0
-1 -6 -20 -35 0
-1 -6 -20 -43 0
-1 -6 -21 -36 0
-1 -6 -21 -46 0
-1 -6 -22 -37 0
-1 -6 -22 -49 0
-1 -6 -23 -38 0
-1 -6 -24 -39 0
-1 -6 -25 -40 0
-1 -6 -26 -41 0
-1 -6 -27 -42 0
-1 -6 -28 -43 0
-1 -6 -29 -44 0
-1 -6 -30 -45 0
-1 -6 -31 -46 0
-1 -6 -32 -47 0
-1 -6 -33 -48 0
-1 -6 -34 -49 0
-1 -6 -35 -50 0
-1 -7 -8 -10 0
-1 -7 -8 -26 0
-1 -7 -8 -28 0
-1 -7 -9 -11 0
-1 -7 -9 -27 0
-1 -7 -9 -31 0
-1 -7 -10 -12 0
-1 -7 -10 -28 0
-1 -7 -10 -34 0
-1 -7 -11 -13 0
-1 -7 -11 -29 0
-1 -7 -11 -37 0
-1 -7 -12 -14 0
-1 -7 -12 -16 0
-1 -7 -12 -30 0
-1 -7 -12 -40 0
-1 -7 -13 -15 0
-1 -7 -13 -19 0
-1 -7 -13 -31 0
-1 -7 -13 -43 0
-1 -7 -14 -16 0
-1 -7 -14 -22 0
-1 -7 -14 -32 0
-1 -7 -14 -46 0
-1 -7 -15 -17 0
-1 -7 -15 -25 0
-1 -7 -15 -33 0
-1 -7 -15 -49 0
-1 -7 -16 -18 0
-1 -7 -16 -28 0
-1 -7 -16 -34 0
-1 -7 -17 -19 0
-1 -7 -17 -31 0
-1 -7 -17 -35 0
-1 -7 -18 -20 0
-1 -7 -18 -34 0
-1 -7 -18 -36 0
-1 -7 -19 -21 0
-1 -7 -19 -37 0
-1 -7 -20 -22 0
-1 -7 -20 -38 0
-1 -7 -20 -40 0
-1 -7 -21 -23 0
-1 -7 -21 -39 0
-1 -7 -21 -43 0
-1 -7 -22 -24 0
-1 -7 -22 -40 0
-1 -7 -22 -46 0
-1 -7 -23 -25 0
-1 -7 -23 -41 0
-1 -7 -23 -49 0
-1 -7 -24 -26 0
-1 -7 -24 -42 0
-1 -7 -25 -27 0
-1 -7 -25 -43 0
-1 -7 -26 -28 0
-1 -7 -26 -44 0
-1 -7 -27 -29 0
-1 -7 -27 -45 0
-1 -7 -28 -30 0
-1 -7 -28 -46 0
-1 -7 -29 -31 0
-1 -7 -29 -47 0
-1 -7 -30 -32 0
-1 -7 -30 -48 0
-1 -7 -31 -33 0
-1 -7 -31 -49 0
-1 -7 -32 -34 0
-1 -7 -32 -50 0
-1 -7 -33 -35 0
-1 -7 -34 -36 0
-1 -7 -35 -37 0
-1 -7 -36 -38 0
-1 -7 -37 -39 0
-1 -7 -38 -40 0
-1 -7 -39 -41 0
-1 -7 -40 -42 0
-1 -7 -41 -43 0
-1 -7 -42 -44 0
-1 -7 -43 -45 0
-1 -7 -44 -46 0
-1 -7 -45 -47 0
-1 -7 -46 -48 0
-1 -7 -47 -49 0
-1 -7 -48 -50 0
-1 -8 -9 -30 0
-1 -8 -9 -32 0
-1 -8 -10 -11 0
-1 -8 -10 -31 0
-1 -8 -10 -35 0
-1 -8 -11 -32 0
-1 -8 -11 -38 0
-1 -8 -12 -13 0
-1 -8 -12 -33 0
-1 -8 -12 -41 0
-1 -8 -13 -16 0
-1 -8 -13 -34 0
-1 -8 -13 -44 0
-1 -8 -14 -19 0
-1 -8 -14 -35 0
-1 -8 -14 -47 0
-1 -8 -15 -22 0
-1 -8 -15 -36 0
-1 -8 -15 -50 0
-1 -8 -16 -25 0
-1 -8 -16 -37 0
-1 -8 -17 -28 0
-1 -8 -17 -38 0
-1 -8 -18 -31 0
-1 -8 -18 -39 0
-1 -8 -19 -34 0
-1 -8 -19 -40 0
-1 -8 -20 -37 0
-1 -8 -20 -41 0
-1 -8 -21 -40 0
-1 -8 -21 -42 0
-1 -8 -22 -43 0
-1 -8 -23 -44 0
-1 -8 -23 -46 0
-1 -8 -24 -45 0
-1 -8 -24 -49 0
-1 -8 -25 -46 0
-1 -8 -26 -47 0
-1 -8 -27 -48 0
-1 -8 -28 -49 0
-1 -8 -29 -50 0
-1 -9 -10 -12 0
-1 -9 -10 -34 0
-1 -9 -10 -36 0
-1 -9 -11 -35 0
-1 -9 -11 -39 0
-1 -9 -12 -36 0
-1 -9 -12 -42 0
-1 -9 -13 -37 0
-1 -9 -13 -45 0
-1 -9 -14 -16 0
-1 -9 -14 -38 0
-1 -9 -14 -48 0
-1 -9 -15 -19 0
-1 -9 -15 -39 0
-1 -9 -16 -22 0
-1 -9 -16 -40 0
-1 -9 -17 -25 0
-1 -9 -17 -41 0
-1 -9 -18 -28 0
-1 -9 -18 -42 0
-1 -9 -19 -31 0
-1 -9 -19 -43 0
-1 -9 -20 -34 0
-1 -9 -20 -44 0
-1 -9 -21 -37 0
-1 -9 -21 -45 0
-1 -9 -22 -40 0
-1 -9 -22 -46 0
-1 -9 -23 -43 0
-1 -9 -23 -47 0
-1 -9 -24 -46 0
-1 -9 -24 -48 0
-1 -9 -25 -49 0
-1 -9 -26 -50 0
-1 -10 -11 -14 0
-1 -10 -11 -38 0
-1 -10 -11 -40 0
-1 -10 -12 -15 0
-1 -10 -12 -39 0
-1 -10 -12 -43 0
-1 -10 -13 -14 0
-1 -10 -13 -16 0
-1 -10 -13 -40 0
-1 -10 -13 -46 0
-1 -10 -14 -17 0
-1 -10 -14 -41 0
-1 -10 -14 -49 0
-1 -10 -15 -16 0
-1 -10 -15 -18 0
-1 -10 -15 -42 0
-1 -10 -16 -19 0
-1 -10 -16 -43 0
-1 -10 -17 -20 0
-1 -10 -17 -22 0
-1 -10 -17 -44 0
-1 -10 -18 -21 0
-1 -10 -18 -25 0
-1 -10 -18 -45 0
-1 -10 -19 -22 0
-1 -10 -19 -28 0
-1 -10 -19 -46 0
-1 -10 -20 -23 0
-1 -10 -20 -31 0
-1 -10 -20 -47 0
-1 -10 -21 -24 0
-1 -10 -21 -34 0
-1 -10 -21 -48 0
-1 -10 -22 -25 0
-1 -10 -22 -37 0
-1 -10 -22 -49 0
-1 -10 -23 -26 0
-1 -10 -23 -40 0
-1 -10 -23 -50 0
-1 -10 -24 -27 0
-1 -10 -24 -43 0
-1 -10 -25 -28 0
-1 -10 -25 -46 0
-1 -10 -26 -29 0
-1 -10 -26 -49 0
-1 -10 -27 -30 0
-1 -10 -28 -31 0
-1 -10 -29 -32 0
-1 -10 -30 -33 0
-1 -10 -31 -34 0
-1 -10 -32 -35 0
-1 -10 -33 -36 0
-1 -10 -34 -37 0
-1 -10 -35 -38 0
-1 -10 -36 -39 0
-1 -10 -37 -40 0
-1 -10 -38 -41 0
-1 -10 -39 -42 0
-1 -10 -40 -43 0
-1 -10 -41 -44 0
-1 -10 -42 -45 0
-1 -10 -43 -46 0
-1 -10 -44 -47 0
-1 -10 -45 -48 0
-1 -10 -46 -49 0
-1 -10 -47 -50 0
-1 -11 -12 -42 0
-1 -11 -12 -44 0
-1 -11 -13 -15 0
-1 -11 -13 -43 0
-1 -11 -13 -47 0
-1 -11 -14 -44 0
-1 -11 -14 -50 0
-1 -11 -15 -45 0
-1 -11 -16 -46 0
-1 -11 -17 -19 0
-1 -11 -17 -47 0
-1 -11 -18 -22 0
-1 -11 -18 -48 0
-1 -11 -19 -25 0
-1 -11 -19 -49 0
-1 -11 -20 -28 0
-1 -11 -20 -50 0
-1 -11 -21 -31 0
-1 -11 -22 -34 0
-1 -11 -23 -37 0
-1 -11 -24 -40 0
-1 -11 -25 -43 0
-1 -11 -26 -46 0
-1 -11 -27 -49 0
-1 -12 -13 -16 0
-1 -12 -13 -46 0
-1 -12 -13 -48 0
-1 -12 -14 -47 0
-1 -12 -15 -48 0
-1 -12 -16 -17 0
-1 -12 -16 -49 0
-1 -12 -17 -50 0
-1 -12 -18 -19 0
-1 -12 -19 -22 0
-1 -12 -20 -25 0
-1 -12 -21 -28 0
-1 -12 -22 -31 0
-1 -12 -23 -34 0
-1 -12 -24 -37 0
-1 -12 -25 -40 0
-1 -12 -26 -43 0
-1 -12 -27 -46 0
-1 -12 -28 -49 0
-1 -13 -14 -18 0
-1 -13 -14 -50 0
-1 -13 -15 -19 0
-1 -13 -16 -18 0
-1 -13 -16 -20 0
-1 -13 -17 -21 0
-1 -13 -18 -22 0
-1 -13 -19 -23 0
-1 -13 -20 -22 0
-1 -13 -20 -24 0
-1 -13 -21 -25 0
-1 -13 -22 -26 0
-1 -13 -22 -28 0
-1 -13 -23 -27 0
-1 -13 -23 -31 0
-1 -13 -24 -28 0
-1 -13 -24 -34 0
-1 -13 -25 -29 0
-1 -13 -25 -37 0
-1 -13 -26 -30 0
-1 -13 -26 -40 0
-1 -13 -27 -31 0
-1 -13 -27 -43 0
-1 -13 -28 -32 0
-1 -13 -28 -46 0
-1 -13 -29 -33 0
-1 -13 -29 -49 0
-1 -13 -30 -34 0
-1 -13 -31 -35 0
-1 -13 -32 -36 0
-1 -13 -33 -37 0
-1 -13 -34 -38 0
-1 -13 -35 -39 0
-1 -13 -36 -40 0
-1 -13 -37 -41 0
-1 -13 -38 -42 0
-1 -13 -39 -43 0
-1 -13 -40 -44 0
-1 -13 -41 -45 0
-1 -13 -42 -46 0
-1 -13 -43 -47 0
-1 -13 -44 -48 0
-1 -13 -45 -49 0
-1 -13 -46 -50 0
-1 -14 -16 -19 0
-1 -14 -19 -20 0
-1 -14 -21 -22 0
-1 -14 -22 -25 0
-1 -14 -23 -28 0
-1 -14 -24 -31 0
-1 -14 -25 -34 0
-1 -14 -26 -37 0
-1 -14 -27 -40 0
-1 -14 -28 -43 0
-1 -14 -29 -46 0
-1 -14 -30 -49 0
-1 -15 -16 -20 0
-1 -15 -19 -21 0
-1 -15 -23 -25 0
-1 -15 -24 -28 0
-1 -15 -25 -31 0
-1 -15 -26 -34 0
-1 -15 -27 -37 0
-1 -15 -28 -40 0
-1 -15 -29 -43 0
-1 -15 -30 -46 0
-1 -15 -31 -49 0
-1 -16 -17 -22 0
-1 -16 -18 -23 0
-1 -16 -19 -22 0
-1 -16 -19 -24 0
-1 -16 -20 -25 0
-1 -16 -21 -26 0
-1 -16 -22 -23 0
-1 -16 -22 -27 0
-1 -16 -23 -28 0
-1 -16 -24 -25 0
-1 -16 -24 -29 0
-1 -16 -25 -28 0
-1 -16 -25 -30 0
-1 -16 -26 -31 0
-1 -16 -27 -32 0
-1 -16 -27 -34 0
-1 -16 -28 -33 0
-1 -16 -28 -37 0
-1 -16 -29 -34 0
-1 -16 -29 -40 0
-1 -16 -30 -35 0
-1 -16 -30 -43 0
-1 -16 -31 -36 0
-1 -16 -31 -46 0
-1 -16 -32 -37 0
-1 -16 -32 -49 0
-1 -16 -33 -38 0
-1 -16 -34 -39 0
-1 -16 -35 -40 0
-1 -16 -36 -41 0
-1 -16 -37 -42 0
-1 -16 -38 -43 0
-1 -16 -39 -44 0
-1 -16 -40 -45 0
-1 -16 -41 -46 0
-1 -16 -42 -47 0
-1 -16 -43 -48 0
-1 -16 -44 -49 0
-1 -16 -45 -50 0
-1 -17 -19 -23 0
-1 -17 -22 -24 0
-1 -17 -26 -28 0
-1 -17 -27 -31 0
-1 -17 -28 -34 0
-1 -17 -29 -37 0
-1 -17 -30 -40 0
-1 -17 -31 -43 0
-1 -17 -32 -46 0
-1 -17 -33 -49 0
-1 -18 -19 -24 0
-1 -18 -22 -25 0
-1 -18 -25 -26 0
-1 -18 -27 -28 0
-1 -18 -28 -31 0
-1 -18 -29 -34 0
-1 -18 -30 -37 0
-1 -18 -31 -40 0
-1 -18 -32 -43 0
-1 -18 -33 -46 0
-1 -18 -34 -49 0
-1 -19 -20 -26 0
-1 -19 -21 -27 0
-1 -19 -22 -26 0
-1 -19 -22 -28 0
-1 -19 -23 -29 0
-1 -19 -24 -30 0
-1 -19 -25 -27 0
-1 -19 -25 -31 0
-1 -19 -26 -32 0
-1 -19 -27 -33 0
-1 -19 -28 -34 0
-1 -19 -29 -31 0
-1 -19 -29 -35 0
-1 -19 -30 -34 0
-1 -19 -30 -36 0
-1 -19 -31 -37 0
-1 -19 -32 -38 0
-1 -19 -32 -40 0
-1 -19 -33 -39 0
-1 -19 -33 -43 0
-1 -19 -34 -40 0
-1 -19 -34 -46 0
-1 -19 -35 -41 0
-1 -19 -35 -49 0
-1 -19 -36 -42 0
-1 -19 -37 -43 0
-1 -19 -38 -44 0
-1 -19 -39 -45 0
-1 -19 -40 -46 0
-1 -19 -41 -47 0
-1 -19 -42 -48 0
-1 -19 -43 -49 0
-1 -19 -44 -50 0
-1 -20 -22 -27 0
-1 -20 -25 -28 0
-1 -20 -28 -29 0
-1 -20 -30 -31 0
-1 -20 -31 -34 0
-1 -20 -32 -37 0
-1 -20 -33 -40 0
-1 -20 -34 -43 0
-1 -20 -35 -46 0
-1 -20 -36 -49 0
-1 -21 -22 -28 0
-1 -21 -25 -29 0
-1 -21 -28 -30 0
-1 -21 -32 -34 0
-1 -21 -33 -37 0
-1 -21 -34 -40 0
-1 -21 -35 -43 0
-1 -21 -36 -46 0
-1 -21 -37 -49 0
-1 -22 -23 -30 0
-1 -22 -24 -31 0
-1 -22 -25 -30 0
-1 -22 -25 -32 0
-1 -22 -26 -33 0
-1 -22 -27 -34 0
-1 -22 -28 -31 0
-1 -22 -28 -35 0
-1 -22 -29 -36 0
-1 -22 -30 -37 0
-1 -22 -31 -32 0
-1 -22 -31 -38 0
-1 -22 -32 -39 0
-1 -22 -33 -34 0
-1 -22 -33 -40 0
-1 -22 -34 -37 0
-1 -22 -34 -41 0
-1 -22 -35 -40 0
-1 -22 -35 -42 0
-1 -22 -36 -43 0
-1 -22 -37 -44 0
-1 -22 -37 -46 0
-1 -22 -38 -45 0
-1 -22 -38 -49 0
-1 -22 -39 -46 0
-1 -22 -40 -47 0
-1 -22 -41 -48 0
-1 -22 -42 -49 0
-1 -22 -43 -50 0
-1 -23 -25 -31 0
-1 -23 -28 -32 0
-1 -23 -31 -33 0
-1 -23 -35 -37 0
-1 -23 -36 -40 0
-1 -23 -37 -43 0
-1 -23 -38 -46 0
-1 -23 -39 -49 0
-1 -24 -25 -32 0
-1 -24 -28 -33 0
-1 -24 -31 -34 0
-1 -24 -34 -35 0
-1 -24 -36 -37 0
-1 -24 -37 -40 0
-1 -24 -38 -43 0
-1 -24 -39 -46 0
-1 -24 -40 -49 0
-1 -25 -26 -34 0
-1 -25 -27 -35 0
-1 -25 -28 -34 0
-1 -25 -28 -36 0
-1 -25 -29 -37 0
-1 -25 -30 -38 0
-1 -25 -31 -35 0
-1 -25 -31 -39 0
-1 -25 -32 -40 0
-1 -25 -33 -41 0
-1 -25 -34 -36 0
-1 -25 -34 -42 0
-1 -25 -35 -43 0
-1 -25 -36 -44 0
-1 -25 -37 -45 0
-1 -25 -38 -40 0
-1 -25 -38 -46 0
-1 -25 -39 -43 0
-1 -25 -39 -47 0
-1 -25 -40 -46 0
-1 -25 -40 -48 0
-1 -25 -41 -49 0
-1 -25 -42 -50 0
-1 -26 -28 -35 0
-1 -26 -31 -36 0
-1 -26 -34 -37 0
-1 -26 -37 -38 0
-1 -26 -39 -40 0
-1 -26 -40 -43 0
-1 -26 -41 -46 0
-1 -26 -42 -49 0
-1 -27 -28 -36 0
-1 -27 -31 -37 0
-1 -27 -34 -38 0
-1 -27 -37 -39 0
-1 -27 -41 -43 0
-1 -27 -42 -46 0
-1 -27 -43 -49 0
-1 -28 -29 -38 0
-1 -28 -30 -39 0
-1 -28 -31 -38 0
-1 -28 -31 -40 0
-1 -28 -32 -41 0
-1 -28 -33 -42 0
-1 -28 -34 -39 0
-1 -28 -34 -43 0
-1 -28 -35 -44 0
-1 -28 -36 -45 0
-1 -28 -37 -40 0
-1 -28 -37 -46 0
-1 -28 -38 -47 0
-1 -28 -39 -48 0
-1 -28 -40 -41 0
-1 -28 -40 -49 0
-1 -28 -41 -50 0
-1 -28 -42 -43 0
-1 -28 -43 -46 0
-1 -28 -44 -49 0
-1 -29 -31 -39 0
-1 -29 -34 -40 0
-1 -29 -37 -41 0
-1 -29 -40 -42 0
-1 -29 -44 -46 0
-1 -29 -45 -49 0
-1 -30 -31 -40 0
-1 -30 -34 -41 0
-1 -30 -37 -42 0
-1 -30 -40 -43 0
-1 -30 -43 -44 0
-1 -30 -45 -46 0
-1 -30 -46 -49 0
-1 -31 -32 -42 0
-1 -31 -33 -43 0
-1 -31 -34 -42 0
-1 -31 -34 -44 0
-1 -31 -35 -45 0
-1 -31 -36 -46 0
-1 -31 -37 -43 0
-1 -31 -37 -47 0
-1 -31 -38 -48 0
-1 -31 -39 -49 0
-1 -31 -40 -44 0
-1 -31 -40 -50 0
-1 -31 -43 -45 0
-1 -31 -47 -49 0
-1 -32 -34 -43 0
-1 -32 -37 -44 0
-1 -32 -40 -45 0
-1 -32 -43 -46 0
-1 -32 -46 -47 0
-1 -32 -48 -49 0
-1 -33 -34 -44 0
-1 -33 -37 -45 0
-1 -33 -40 -46 0
-1 -33 -43 -47 0
-1 -33 -46 -48 0
-1 -34 -35 -46 0
-1 -34 -36 -47 0
-1 -34 -37 -46 0
-1 -34 -37 -48 0
-1 -34 -38 -49 0
-1 -34 -39 -50 0
-1 -34 -40 -47 0
-1 -34 -43 -48 0
-1 -34 -46 -49 0
-1 -34 -49 -50 0
-1 -35 -37 -47 0
-1 -35 -40 -48 0
-1 -35 -43 -49 0
-1 -35 -46 -50 0
-1 -36 -37 -48 0
-1 -36 -40 -49 0
-1 -36 -43 -50 0
-1 -37 -38 -50 0
-1 -37 -40 -50 0
-2 -3 -4 -5 0
-2 -3 -4 -7 0
-2 -3 -4 -9 0
-2 -3 -5 -8 0
-2 -3 -5 -12 0
-2 -3 -6 -9 0
-2 -3 -6 -11 0
-2 -3 -6 -15 0
-2 -3 -7 -10 0
-2 -3 -7 -14 0
-2 -3 -7 -18 0
-2 -3 -8 -11 0
-2 -3 -8 -17 0
-2 -3 -8 -21 0
-2 -3 -9 -12 0
-2 -3 -9 -20 0
-2 -3 -9 -24 0
-2 -3 -10 -13 0
-2 -3 -10 -23 0
-2 -3 -10 -27 0
-2 -3 -11 -14 0
-2 -3 -11 -26 0
-2 -3 -11 -30 0
-2 -3 -12 -15 0
-2 -3 -12 -29 0
-2 -3 -12 -33 0
-2 -3 -13 -16 0
-2 -3 -13 -32 0
-2 -3 -13 -36 0
-2 -3 -14 -17 0
-2 -3 -14 -35 0
-2 -3 -14 -39 0
-2 -3 -15 -18 0
-2 -3 -15 -38 0
-2 -3 -15 -42 0
-2 -3 -16 -19 0
-2 -3 -16 -41 0
-2 -3 -16 -45 0
-2 -3 -17 -20 0
-2 -3 -17 -44 0
-2 -3 -17 -48 0
-2 -3 -18 -21 0
-2 -3 -18 -47 0
-2 -3 -19 -22 0
-2 -3 -19 -50 0
-2 -3 -20 -23 0
-2 -3 -21 -24 0
-2 -3 -22 -25 0
-2 -3 -23 -26 0
-2 -3 -24 -27 0
-2 -3 -25 -28 0
-2 -3 -26 -29 0
-2 -3 -27 -30 0
-2 -3 -28 -31 0
-2 -3 -29 -32 0
-2 -3 -30 -33 0
-2 -3 -31 -34 0
-2 -3 -32 -35 0
-2 -3 -33 -36 0
-2 -3 -34 -37 0
-2 -3 -35 -38 0
-2 -3 -36 -39 0
-2 -3 -37 -40 0
-2 -3 -38 -41 0
-2 -3 -39 -42 0
-2 -3 -40 -43 0
-2 -3 -41 -44 0
-2 -3 -42 -45 0
-2 -3 -43 -46 0
-2 -3 -44 -47 0
-2 -3 -45 -48 0
-2 -3 -46 -49 0
-2 -3 -47 -50 0
-2 -4 -5 -11 0
-2 -4 -5 -13 0
-2 -4 -6 -8 0
-2 -4 -6 -12 0
-2 -4 -6 -16 0
-2 -4 -7 -11 0
-2 -4 -7 -13 0
-2 -4 -7 -19 0
-2 -4 -8 -14 0
-2 -4 -8 -22 0
-2 -4 -9 -15 0
-2 -4 -9 -17 0
-2 -4 -9 -25 0
-2 -4 -10 -16 0
-2 -4 -10 -20 0
-2 -4 -10 -28 0
-2 -4 -11 -17 0
-2 -4 -11 -23 0
-2 -4 -11 -31 0
-2 -4 -12 -18 0
-2 -4 -12 -26 0
-2 -4 -12 -34 0
-2 -4 -13 -19 0
-2 -4 -13 -29 0
-2 -4 -13 -37 0
-2 -4 -14 -20 0
-2 -4 -14 -32 0
-2 -4 -14 -40 0
-2 -4 -15 -21 0
-2 -4 -15 -35 0
-2 -4 -15 -43 0
-2 -4 -16 -22 0
-2 -4 -16 -38 0
-2 -4 -16 -46 0
-2 -4 -17 -23 0
-2 -4 -17 -41 0
-2 -4 -17 -49 0
-2 -4 -18 -24 0
-2 -4 -18 -44 0
-2 -4 -19 -25 0
-2 -4 -19 -47 0
-2 -4 -20 -26 0
-2 -4 -20 -50 0
-2 -4 -21 -27 0
-2 -4 -22 -28 0
-2 -4 -23 -29 0
-2 -4 -24 -30 0
-2 -4 -25 -31 0
-2 -4 -26 -32 0
-2 -4 -27 -33 0
-2 -4 -28 -34 0
-2 -4 -29 -35 0
-2 -4 -30 -36 0
-2 -4 -31 -37 0
-2 -4 -32 -38 0
-2 -4 -33 -39 0
-2 -4 -34 -40 0
-2 -4 -35 -41 0
-2 -4 -36 -42 0
-2 -4 -37 -43 0
-2 -4 -38 -44 0
-2 -4 -39 -45 0
-2 -4 -40 -46 0
-2 -4 -41 -47 0
-2 -4 -42 -48 0
-2 -4 -43 -49 0
-2 -4 -44 -50 0
-2 -5 -6 -7 0
-2 -5 -6 -15 0
-2 -5 -6 -17 0
-2 -5 -7 -8 0
-2 -5 -7 -16 0
-2 -5 -7 -20 0
-2 -5 -8 -9 0
-2 -5 -8 -11 0
-2 -5 -8 -17 0
-2 -5 -8 -23 0
-2 -5 -9 -10 0
-2 -5 -9 -14 0
-2 -5 -9 -18 0
-2 -5 -9 -26 0
-2 -5 -10 -11 0
-2 -5 -10 -17 0
-2 -5 -10 -19 0
-2 -5 -10 -29 0
-2 -5 -11 -12 0
-2 -5 -11 -20 0
-2 -5 -11 -32 0
-2 -5 -12 -13 0
-2 -5 -12 -21 0
-2 -5 -12 -23 0
-2 -5 -12 -35 0
-2 -5 -13 -14 0
-2 -5 -13 -22 0
-2 -5 -13 -26 0
-2 -5 -13 -38 0
-2 -5 -14 -15 0
-2 -5 -14 -23 0
-2 -5 -14 -29 0
-2 -5 -14 -41 0
-2 -5 -15 -16 0
-2 -5 -15 -24 0
-2 -5 -15 -32 0
-2 -5 -15 -44 0
-2 -5 -16 -17 0
-2 -5 -16 -25 0
-2 -5 -16 -35 0
-2 -5 -16 -47 0
-2 -5 -17 -18 0
-2 -5 -17 -26 0
-2 -5 -17 -38 0
-2 -5 -17 -50 0
-2 -5 -18 -19 0
-2 -5 -18 -27 0
-2 -5 -18 -41 0
-2 -5 -19 -20 0
-2 -5 -19 -28 0
-2 -5 -19 -44 0
-2 -5 -20 -21 0
-2 -5 -20 -29 0
-2 -5 -20 -47 0
-2 -5 -21 -22 0
-2 -5 -21 -30 0
-2 -5 -21 -50 0
-2 -5 -22 -23 0
-2 -5 -22 -31 0
-2 -5 -23 -24 0
-2 -5 -23 -32 0
-2 -5 -24 -25 0
-2 -5 -24 -33 0
-2 -5 -25 -26 0
-2 -5 -25 -34 0
-2 -5 -26 -27 0
-2 -5 -26 -35 0
-2 -5 -27 -28 0
-2 -5 -27 -36 0
-2 -5 -28 -29 0
-2 -5 -28 -37 0
-2 -5 -29 -30 0
-2 -5 -29 -38 0
-2 -5 -30 -31 0
-2 -5 -30 -39 0
-2 -5 -31 -32 0
-2 -5 -31 -40 0
-2 -5 -32 -33 0
-2 -5 -32 -41 0
-2 -5 -33 -34 0
-2 -5 -33 -42 0
-2 -5 -34 -35 0
-2 -5 -34 -43 0
-2 -5 -35 -36 0
-2 -5 -35 -44 0
-2 -5 -36 -37 0
-2 -5 -36 -45 0
-2 -5 -37 -38 0
-2 -5 -37 -46 0
-2 -5 -38 -39 0
-2 -5 -38 -47 0
-2 -5 -39 -40 0
-2 -5 -39 -48 0
-2 -5 -40 -41 0
-2 -5 -40 -49 0
-2 -5 -41 -42 0
-2 -5 -41 -50 0
-2 -5 -42 -43 0
-2 -5 -43 -44 0
-2 -5 -44 -45 0
-2 -5 -45 -46 0
-2 -5 -46 -47 0
-2 -5 -47 -48 0
-2 -5 -48 -49 0
-2 -5 -49 -50 0
-2 -6 -7 -19 0
-2 -6 -7 -21 0
-2 -6 -8 -20 0
-2 -6 -8 -24 0
-2 -6 -9 -11 0
-2 -6 -9 -21 0
-2 -6 -9 -27 0
-2 -6 -10 -14 0
-2 -6 -10 -22 0
-2 -6 -10 -30 0
-2 -6 -11 -17 0
-2 -6 -11 -23 0
-2 -6 -11 -33 0
-2 -6 -12 -20 0
-2 -6 -12 -24 0
-2 -6 -12 -36 0
-2 -6 -13 -23 0
-2 -6 -13 -25 0
-2 -6 -13 -39 0
-2 -6 -14 -26 0
-2 -6 -14 -42 0
-2 -6 -15 -27 0
-2 -6 -15 -29 0
-2 -6 -15 -45 0
-2 -6 -16 -28 0
-2 -6 -16 -32 0
-2 -6 -16 -48 0
-2 -6 -17 -29 0
-2 -6 -17 -35 0
-2 -6 -18 -30 0
-2 -6 -18 -38 0
-2 -6 -19 -31 0
-2 -6 -19 -41 0
-2 -6 -20 -32 0
-2 -6 -20 -44 0
-2 -6 -21 -33 0
-2 -6 -21 -47 0
-2 -6 -22 -34 0
-2 -6 -22 -50 0
-2 -6 -23 -35 0
-2 -6 -24 -36 0
-2 -6 -25 -37 0
-2 -6 -26 -38 0
-2 -6 -27 -39 0
-2 -6 -28 -40 0
-2 -6 -29 -41 0
-2 -6 -30 -42 0
-2 -6 -31 -43 0
-2 -6 -32 -44 0
-2 -6 -33 -45 0
-2 -6 -34 -46 0
-2 -6 -35 -47 0
-2 -6 -36 -48 0
-2 -6 -37 -49 0
-2 -6 -38 -50 0
-2 -7 -8 -9 0
-2 -7 -8 -23 0
-2 -7 -8 -25 0
-2 -7 -9 -24 0
-2 -7 -9 -28 0
-2 -7 -10 -11 0
-2 -7 -10 -25 0
-2 -7 -10 -31 0
-2 -7 -11 -14 0
-2 -7 -11 -26 0
-2 -7 -11 -34 0
-2 -7 -12 -17 0
-2 -7 -12 -27 0
-2 -7 -12 -37 0
-2 -7 -13 -20 0
-2 -7 -13 -28 0
-2 -7 -13 -40 0
-2 -7 -14 -23 0
-2 -7 -14 -29 0
-2 -7 -14 -43 0
-2 -7 -15 -26 0
-2 -7 -15 -30 0
-2 -7 -15 -46 0
-2 -7 -16 -29 0
-2 -7 -16 -31 0
-2 -7 -16 -49 0
-2 -7 -17 -32 0
-2 -7 -18 -33 0
-2 -7 -18 -35 0
-2 -7 -19 -34 0
-2 -7 -19 -38 0
-2 -7 -20 -35 0
-2 -7 -20 -41 0
-2 -7 -21 -36 0
-2 -7 -21 -44 0
-2 -7 -22 -37 0
-2 -7 -22 -47 0
-2 -7 -23 -38 0
-2 -7 -23 -50 0
-2 -7 -24 -39 0
-2 -7 -25 -40 0
-2 -7 -26 -41 0
-2 -7 -27 -42 0
-2 -7 -28 -43 0
-2 -7 -29 -44 0
-2 -7 -30 -45 0
-2 -7 -31 -46 0
-2 -7 -32 -47 0
-2 -7 -33 -48 0
-2 -7 -34 -49 0
-2 -7 -35 -50 0
-2 -8 -9 -11 0
-2 -8 -9 -27 0
-2 -8 -9 -29 0
-2 -8 -10 -12 0
-2 -8 -10 -28 0
-2 -8 -10 -32 0
-2 -8 -11 -13 0
-2 -8 -11 -29 0
-2 -8 -11 -35 0
-2 -8 -12 -14 0
-2 -8 -12 -30 0
-2 -8 -12 -38 0
-2 -8 -13 -15 0
-2 -8 -13 -17 0
-2 -8 -13 -31 0
-2 -8 -13 -41 0
-2 -8 -14 -16 0
-2 -8 -14 -20 0
-2 -8 -14 -32 0
-2 -8 -14 -44 0
-2 -8 -15 -17 0
-2 -8 -15 -23 0
-2 -8 -15 -33 0
-2 -8 -15 -47 0
-2 -8 -16 -18 0
-2 -8 -16 -26 0
-2 -8 -16 -34 0
-2 -8 -16 -50 0
-2 -8 -17 -19 0
-2 -8 -17 -29 0
-2 -8 -17 -35 0
-2 -8 -18 -20 0
-2 -8 -18 -32 0
-2 -8 -18 -36 0
-2 -8 -19 -21 0
-2 -8 -19 -35 0
-2 -8 -19 -37 0
-2 -8 -20 -22 0
-2 -8 -20 -38 0
-2 -8 -21 -23 0
-2 -8 -21 -39 0
-2 -8 -21 -41 0
-2 -8 -22 -24 0
-2 -8 -22 -40 0
-2 -8 -22 -44 0
-2 -8 -23 -25 0
-2 -8 -23 -41 0
-2 -8 -23 -47 0
-2 -8 -24 -26 0
-2 -8 -24 -42 0
-2 -8 -24 -50 0
-2 -8 -25 -27 0
-2 -8 -25 -43 0
-2 -8 -26 -28 0
-2 -8 -26 -44 0
-2 -8 -27 -29 0
-2 -8 -27 -45 0
-2 -8 -28 -30 0
-2 -8 -28 -46 0
-2 -8 -29 -31 0
-2 -8 -29 -47 0
-2 -8 -30 -32 0
-2 -8 -30 -48 0
-2 -8 -31 -33 0
-2 -8 -31 -49 0
-2 -8 -32 -34 0
-2 -8 -32 -50 0
-2 -8 -33 -35 0
-2 -8 -34 -36 0
-2 -8 -35 -37 0
-2 -8 -36 -38 0
-2 -8 -37 -39 0
-2 -8 -38 -40 0
-2 -8 -39 -41 0
-2 -8 -40 -42 0
-2 -8 -41 -43 0
-2 -8 -42 -44 0
-2 -8 -43 -45 0
-2 -8 -44 -46 0
-2 -8 -45 -47 0
-2 -8 -46 -48 0
-2 -8 -47 -49 0
-2 -8 -48 -50 0
-2 -9 -10 -31 0
-2 -9 -10 -33 0
-2 -9 -11 -12 0
-2 -9 -11 -32 0
-2 -9 -11 -36 0
-2 -9 -12 -33 0
-2 -9 -12 -39 0
-2 -9 -13 -14 0
-2 -9 -13 -34 0
-2 -9 -13 -42 0
-2 -9 -14 -17 0
-2 -9 -14 -35 0
-2 -9 -14 -45 0
-2 -9 -15 -20 0
-2 -9 -15 -36 0
-2 -9 -15 -48 0
-2 -9 -16 -23 0
-2 -9 -16 -37 0
-2 -9 -17 -26 0
-2 -9 -17 -38 0
-2 -9 -18 -29 0
-2 -9 -18 -39 0
-2 -9 -19 -32 0
-2 -9 -19 -40 0
-2 -9 -20 -35 0
-2 -9 -20 -41 0
-2 -9 -21 -38 0
-2 -9 -21 -42 0
-2 -9 -22 -41 0
-2 -9 -22 -43 0
-2 -9 -23 -44 0
-2 -9 -24 -45 0
-2 -9 -24 -47 0
-2 -9 -25 -46 0
-2 -9 -25 -50 0
-2 -9 -26 -47 0
-2 -9 -27 -48 0
-2 -9 -28 -49 0
-2 -9 -29 -50 0
-2 -10 -11 -13 0
-2 -10 -11 -35 0
-2 -10 -11 -37 0
-2 -10 -12 -36 0
-2 -10 -12 -40 0
-2 -10 -13 -37 0
-2 -10 -13 -43 0
-2 -10 -14 -38 0
-2 -10 -14 -46 0
-2 -10 -15 -17 0
-2 -10 -15 -39 0
-2 -10 -15 -49 0
-2 -10 -16 -20 0
-2 -10 -16 -40 0
-2 -10 -17 -23 0
-2 -10 -17 -41 0
-2 -10 -18 -26 0
-2 -10 -18 -42 0
-2 -10 -19 -29 0
-2 -10 -19 -43 0
-2 -10 -20 -32 0
-2 -10 -20 -44 0
-2 -10 -21 -35 0
-2 -10 -21 -45 0
-2 -10 -22 -38 0
-2 -10 -22 -46 0
-2 -10 -23 -41 0
-2 -10 -23 -47 0
-2 -10 -24 -44 0
-2 -10 -24 -48 0
-2 -10 -25 -47 0
-2 -10 -25 -49 0
-2 -10 -26 -50 0
-2 -11 -12 -15 0
-2 -11 -12 -39 0
-2 -11 -12 -41 0
-2 -11 -13 -16 0
-2 -11 -13 -40 0
-2 -11 -13 -44 0
-2 -11 -14 -15 0
-2 -11 -14 -17 0
-2 -11 -14 -41 0
-2 -11 -14 -47 0
-2 -11 -15 -18 0
-2 -11 -15 -42 0
-2 -11 -15 -50 0
-2 -11 -16 -17 0
-2 -11 -16 -19 0
-2 -11 -16 -43 0
-2 -11 -17 -20 0
-2 -11 -17 -44 0
-2 -11 -18 -21 0
-2 -11 -18 -23 0
-2 -11 -18 -45 0
-2 -11 -19 -22 0
-2 -11 -19 -26 0
-2 -11 -19 -46 0
-2 -11 -20 -23 0
-2 -11 -20 -29 0
-2 -11 -20 -47 0
-2 -11 -21 -24 0
-2 -11 -21 -32 0
-2 -11 -21 -48 0
-2 -11 -22 -25 0
-2 -11 -22 -35 0
-2 -11 -22 -49 0
-2 -11 -23 -26 0
-2 -11 -23 -38 0
-2 -11 -23 -50 0
-2 -11 -24 -27 0
-2 -11 -24 -41 0
-2 -11 -25 -28 0
-2 -11 -25 -44 0
-2 -11 -26 -29 0
-2 -11 -26 -47 0
-2 -11 -27 -30 0
-2 -11 -27 -50 0
-2 -11 -28 -31 0
-2 -11 -29 -32 0
-2 -11 -30 -33 0
-2 -11 -31 -34 0
-2 -11 -32 -35 0
-2 -11 -33 -36 0
-2 -11 -34 -37 0
-2 -11 -35 -38 0
-2 -11 -36 -39 0
-2 -11 -37 -40 0
-2 -11 -38 -41 0
-2 -11 -39 -42 0
-2 -11 -40 -43 0
-2 -11 -41 -44 0
-2 -11 -42 -45 0
-2 -11 -43 -46 0
-2 -11 -44 -47 0
-2 -11 -45 -48 0
-2 -11 -46 -49 0
-2 -11 -47 -50 0
-2 -12 -13 -43 0
-2 -12 -13 -45 0
-2 -12 -14 -16 0
-2 -12 -14 -44 0
-2 -12 -14 -48 0
-2 -12 -15 -45 0
-2 -12 -16 -46 0
-2 -12 -17 -47 0
-2 -12 -18 -20 0
-2 -12 -18 -48 0
-2 -12 -19 -23 0
-2 -12 -19 -49 0
-2 -12 -20 -26 0
-2 -12 -20 -50 0
-2 -12 -21 -29 0
-2 -12 -22 -32 0
-2 -12 -23 -35 0
-2 -12 -24 -38 0
-2 -12 -25 -41 0
-2 -12 -26 -44 0
-2 -12 -27 -47 0
-2 -12 -28 -50 0
-2 -13 -14 -17 0
-2 -13 -14 -47 0
-2 -13 -14 -49 0
-2 -13 -15 -48 0
-2 -13 -16 -49 0
-2 -13 -17 -18 0
-2 -13 -17 -50 0
-2 -13 -19 -20 0
-2 -13 -20 -23 0
-2 -13 -21 -26 0
-2 -13 -22 -29 0
-2 -13 -23 -32 0
-2 -13 -24 -35 0
-2 -13 -25 -38 0
-2 -13 -26 -41 0
-2 -13 -27 -44 0
-2 -13 -28 -47 0
-2 -13 -29 -50 0
-2 -14 -15 -19 0
-2 -14 -16 -20 0
-2 -14 -17 -19 0
-2 -14 -17 -21 0
-2 -14 -18 -22 0
-2 -14 -19 -23 0
-2 -14 -20 -24 0
-2 -14 -21 -23 0
-2 -14 -21 -25 0
-2 -14 -22 -26 0
-2 -14 -23 -27 0
-2 -14 -23 -29 0
-2 -14 -24 -28 0
-2 -14 -24 -32 0
-2 -14 -25 -29 0
-2 -14 -25 -35 0
-2 -14 -26 -30 0
-2 -14 -26 -38 0
-2 -14 -27 -31 0
-2 -14 -27 -41 0
-2 -14 -28 -32 0
-2 -14 -28 -44 0
-2 -14 -29 -33 0
-2 -14 -29 -47 0
-2 -14 -30 -34 0
-2 -14 -30 -50 0
-2 -14 -31 -35 0
-2 -14 -32 -36 0
-2 -14 -33 -37 0
-2 -14 -34 -38 0
-2 -14 -35 -39 0
-2 -14 -36 -40 0
-2 -14 -37 -41 0
-2 -14 -38 -42 0
-2 -14 -39 -43 0
-2 -14 -40 -44 0
-2 -14 -41 -45 0
-2 -14 -42 -46 0
-2 -14 -43 -47 0
-2 -14 -44 -48 0
-2 -14 -45 -49 0
-2 -14 -46 -50 0
-2 -15 -17 -20 0
-2 -15 -20 -21 0
-2 -15 -22 -23 0
-2 -15 -23 -26 0
-2 -15 -24 -29 0
-2 -15 -25 -32 0
-2 -15 -26 -35 0
-2 -15 -27 -38 0
-2 -15 -28 -41 0
-2 -15 -29 -44 0
-2 -15 -30 -47 0
-2 -15 -31 -50 0
-2 -16 -17 -21 0
-2 -16 -20 -22 0
-2 -16 -24 -26 0
-2 -16 -25 -29 0
-2 -16 -26 -32 0
-2 -16 -27 -35 0
-2 -16 -28 -38 0
-2 -16 -29 -41 0
-2 -16 -30 -44 0
-2 -16 -31 -47 0
-2 -16 -32 -50 0
-2 -17 -18 -23 0
-2 -17 -19 -24 0
-2 -17 -20 -23 0
-2 -17 -20 -25 0
-2 -17 -21 -26 0
-2 -17 -22 -27 0
-2 -17 -23 -24 0
-2 -17 -23 -28 0
-2 -17 -24 -29 0
-2 -17 -25 -26 0
-2 -17 -25 -30 0
-2 -17 -26 -29 0
-2 -17 -26 -31 0
-2 -17 -27 -32 0
-2 -17 -28 -33 0
-2 -17 -28 -35 0
-2 -17 -29 -34 0
-2 -17 -29 -38 0
-2 -17 -30 -35 0
-2 -17 -30 -41 0
-2 -17 -31 -36 0
-2 -17 -31 -44 0
-2 -17 -32 -37 0
-2 -17 -32 -47 0
-2 -17 -33 -38 0
-2 -17 -33 -50 0
-2 -17 -34 -39 0
-2 -17 -35 -40 0
-2 -17 -36 -41 0
-2 -17 -37 -42 0
-2 -17 -38 -43 0
-2 -17 -39 -44 0
-2 -17 -40 -45 0
-2 -17 -41 -46 0
-2 -17 -42 -47 0
-2 -17 -43 -48 0
-2 -17 -44 -49 0
-2 -17 -45 -50 0
-2 -18 -20 -24 0
-2 -18 -23 -25 0
-2 -18 -27 -29 0
-2 -18 -28 -32 0
-2 -18 -29 -35 0
-2 -18 -30 -38 0
-2 -18 -31 -41 0
-2 -18 -32 -44 0
-2 -18 -33 -47 0
-2 -18 -34 -50 0
-2 -19 -20 -25 0
-2 -19 -23 -26 0
-2 -19 -26 -27 0
-2 -19 -28 -29 0
-2 -19 -29 -32 0
-2 -19 -30 -35 0
-2 -19 -31 -38 0
-2 -19 -32 -41 0
-2 -19 -33 -44 0
-2 -19 -34 -47 0
-2 -19 -35 -50 0
-2 -20 -21 -27 0
-2 -20 -22 -28 0
-2 -20 -23 -27 0
-2 -20 -23 -29 0
-2 -20 -24 -30 0
-2 -20 -25 -31 0
-2 -20 -26 -28 0
-2 -20 -26 -32 0
-2 -20 -27 -33 0
-2 -20 -28 -34 0
-2 -20 -29 -35 0
-2 -20 -30 -32 0
-2 -20 -30 -36 0
-2 -20 -31 -35 0
-2 -20 -31 -37 0
-2 -20 -32 -38 0
-2 -20 -33 -39 0
-2 -20 -33 -41 0
-2 -20 -34 -40 0
-2 -20 -34 -44 0
-2 -20 -35 -41 0
-2 -20 -35 -47 0
-2 -20 -36 -42 0
-2 -20 -36 -50 0
-2 -20 -37 -43 0
-2 -20 -38 -44 0
-2 -20 -39 -45 0
-2 -20 -40 -46 0
-2 -20 -41 -47 0
-2 -20 -42 -48 0
-2 -20 -43 -49 0
-2 -20 -44 -50 0
-2 -21 -23 -28 0
-2 -21 -26 -29 0
-2 -21 -29 -30 0
-2 -21 -31 -32 0
-2 -21 -32 -35 0
-2 -21 -33 -38 0
-2 -21 -34 -41 0
-2 -21 -35 -44 0
-2 -21 -36 -47 0
-2 -21 -37 -50 0
-2 -22 -23 -29 0
-2 -22 -26 -30 0
-2 -22 -29 -31 0
-2 -22 -33 -35 0
-2 -22 -34 -38 0
-2 -22 -35 -41 0
-2 -22 -36 -44 0
-2 -22 -37 -47 0
-2 -22 -38 -50 0
-2 -23 -24 -31 0
-2 -23 -25 -32 0
-2 -23 -26 -31 0
-2 -23 -26 -33 0
-2 -23 -27 -34 0
-2 -23 -28 -35 0
-2 -23 -29 -32 0
-2 -23 -29 -36 0
-2 -23 -30 -37 0
-2 -23 -31 -38 0
-2 -23 -32 -33 0
-2 -23 -32 -39 0
-2 -23 -33 -40 0
-2 -23 -34 -35 0
-2 -23 -34 -41 0
-2 -23 -35 -38 0
-2 -23 -35 -42 0
-2 -23 -36 -41 0
-2 -23 -36 -43 0
-2 -23 -37 -44 0
-2 -23 -38 -45 0
-2 -23 -38 -47 0
-2 -23 -39 -46 0
-2 -23 -39 -50 0
-2 -23 -40 -47 0
-2 -23 -41 -48 0
-2 -23 -42 -49 0
-2 -23 -43 -50 0
-2 -24 -26 -32 0
-2 -24 -29 -33 0
-2 -24 -32 -34 0
-2 -24 -36 -38 0
-2 -24 -37 -41 0
-2 -24 -38 -44 0
-2 -24 -39 -47 0
-2 -24 -40 -50 0
-2 -25 -26 -33 0
-2 -25 -29 -34 0
-2 -25 -32 -35 0
-2 -25 -35 -36 0
-2 -25 -37 -38 0
-2 -25 -38 -41 0
-2 -25 -39 -44 0
-2 -25 -40 -47 0
-2 -25 -41 -50 0
-2 -26 -27 -35 0
-2 -26 -28 -36 0
-2 -26 -29 -35 0
-2 -26 -29 -37 0
-2 -26 -30 -38 0
-2 -26 -31 -39 0
-2 -26 -32 -36 0
-2 -26 -32 -40 0
-2 -26 -33 -41 0
-2 -26 -34 -42 0
-2 -26 -35 -37 0
-2 -26 -35 -43 0
-2 -26 -36 -44 0
-2 -26 -37 -45 0
-2 -26 -38 -46 0
-2 -26 -39 -41 0
-2 -26 -39 -47 0
-2 -26 -40 -44 0
-2 -26 -40 -48 0
-2 -26 -41 -47 0
-2 -26 -41 -49 0
-2 -26 -42 -50 0
-2 -27 -29 -36 0
-2 -27 -32 -37 0
-2 -27 -35 -38 0
-2 -27 -38 -39 0
-2 -27 -40 -41 0
-2 -27 -41 -44 0
-2 -27 -42 -47 0
-2 -27 -43 -50 0
-2 -28 -29 -37 0
-2 -28 -32 -38 0
-2 -28 -35 -39 0
-2 -28 -38 -40 0
-2 -28 -42 -44 0
-2 -28 -43 -47 0
-2 -28 -44 -50 0
-2 -29 -30 -39 0
-2 -29 -31 -40 0
-2 -29 -32 -39 0
-2 -29 -32 -41 0
-2 -29 -33 -42 0
-2 -29 -34 -43 0
-2 -29 -35 -40 0
-2 -29 -35 -44 0
-2 -29 -36 -45 0
-2 -29 -37 -46 0
-2 -29 -38 -41 0
-2 -29 -38 -47 0
-2 -29 -39 -48 0
-2 -29 -40 -49 0
-2 -29 -41 -42 0
-2 -29 -41 -50 0
-2 -29 -43 -44 0
-2 -29 -44 -47 0
-2 -29 -45 -50 0
-2 -30 -32 -40 0
-2 -30 -35 -41 0
-2 -30 -38 -42 0
-2 -30 -41 -43 0
-2 -30 -45 -47 0
-2 -30 -46 -50 0
-2 -31 -32 -41 0
-2 -31 -35 -42 0
-2 -31 -38 -43 0
-2 -31 -41 -44 0
-2 -31 -44 -45 0
-2 -31 -46 -47 0
-2 -31 -47 -50 0
-2 -32 -33 -43 0
-2 -32 -34 -44 0
-2 -32 -35 -43 0
-2 -32 -35 -45 0
-2 -32 -36 -46 0
-2 -32 -37 -47 0
-2 -32 -38 -44 0
-2 -32 -38 -48 0
-2 -32 -39 -49 0
-2 -32 -40 -50 0
-2 -32 -41 -45 0
-2 -32 -44 -46 0
-2 -32 -48 -50 0
-2 -33 -35 -44 0
-2 -33 -38 -45 0
-2 -33 -41 -46 0
-2 -33 -44 -47 0
-2 -33 -47 -48 0
-2 -33 -49 -50 0
-2 -34 -35 -45 0
-2 -34 -38 -46 0
-2 -34 -41 -47 0
-2 -34 -44 -48 0
-2 -34 -47 -49 0
-2 -35 -36 -47 0
-2 -35 -37 -48 0
-2 -35 -38 -47 0
-2 -35 -38 -49 0
-2 -35 -39 -50 0
-2 -35 -41 -48 0
-2 -35 -44 -49 0
-2 -35 -47 -50 0
-2 -36 -38 -48 0
-2 -36 -41 -49 0
-2 -36 -44 -50 0
-2 -37 -38 -49 0
-2 -37 -41 -50 0
-3 -4 -5 -6 0
-3 -4 -5 -8 0
-3 -4 -5 -10 0
-3 -4 -6 -9 0
-3 -4 -6 -13 0
-3 -4 -7 -10 0
-3 -4 -7 -12 0
-3 -4 -7 -16 0
-3 -4 -8 -11 0
-3 -4 -8 -15 0
-3 -4 -8 -19 0
-3 -4 -9 -12 0
-3 -4 -9 -18 0
-3 -4 -9 -22 0
-3 -4 -10 -13 0
-3 -4 -10 -21 0
-3 -4 -10 -25 0
-3 -4 -11 -14 0
-3 -4 -11 -24 0
-3 -4 -11 -28 0
-3 -4 -12 -15 0
-3 -4 -12 -27 0
-3 -4 -12 -31 0
-3 -4 -13 -16 0
-3 -4 -13 -30 0
-3 -4 -13 -34 0
-3 -4 -14 -17 0
-3 -4 -14 -33 0
-3 -4 -14 -37 0
-3 -4 -15 -18 0
-3 -4 -15 -36 0
-3 -4 -15 -40 0
-3 -4 -16 -19 0
-3 -4 -16 -39 0
-3 -4 -16 -43 0
-3 -4 -17 -20 0
-3 -4 -17 -42 0
-3 -4 -17 -46 0
-3 -4 -18 -21 0
-3 -4 -18 -45 0
-3 -4 -18 -49 0
-3 -4 -19 -22 0
-3 -4 -19 -48 0
-3 -4 -20 -23 0
-3 -4 -21 -24 0
-3 -4 -22 -25 0
-3 -4 -23 -26 0
-3 -4 -24 -27 0
-3 -4 -25 -28 0
-3 -4 -26 -29 0
-3 -4 -27 -30 0
-3 -4 -28 -31 0
-3 -4 -29 -32 0
-3 -4 -30 -33 0
-3 -4 -31 -34 0
-3 -4 -32 -35 0
-3 -4 -33 -36 0
-3 -4 -34 -37 0
-3 -4 -35 -38 0
-3 -4 -36 -39 0
-3 -4 -37 -40 0
-3 -4 -38 -41 0
-3 -4 -39 -42 0
-3 -4 -40 -43 0
-3 -4 -41 -44 0
-3 -4 -42 -45 0
-3 -4 -43 -46 0
-3 -4 -44 -47 0
-3 -4 -45 -48 0
-3 -4 -46 -49 0
-3 -4 -47 -50 0
-3 -5 -6 -12 0
-3 -5 -6 -14 0
-3 -5 -7 -9 0
-3 -5 -7 -13 0
-3 -5 -7 -17 0
-3 -5 -8 -12 0
-3 -5 -8 -14 0
-3 -5 -8 -20 0
-3 -5 -9 -15 0
-3 -5 -9 -23 0
-3 -5 -10 -16 0
-3 -5 -10 -18 0
-3 -5 -10 -26 0
-3 -5 -11 -17 0
-3 -5 -11 -21 0
-3 -5 -11 -29 0
-3 -5 -12 -18 0
-3 -5 -12 -24 0
-3 -5 -12 -32 0
-3 -5 -13 -19 0
-3 -5 -13 -27 0
-3 -5 -13 -35 0
-3 -5 -14 -20 0
-3 -5 -14 -30 0
-3 -5 -14 -38 0
-3 -5 -15 -21 0
-3 -5 -15 -33 0
-3 -5 -15 -41 0
-3 -5 -16 -22 0
-3 -5 -16 -36 0
-3 -5 -16 -44 0
-3 -5 -17 -23 0
-3 -5 -17 -39 0
-3 -5 -17 -47 0
-3 -5 -18 -24 0
-3 -5 -18 -42 0
-3 -5 -18 -50 0
-3 -5 -19 -25 0
-3 -5 -19 -45 0
-3 -5 -20 -26 0
-3 -5 -20 -48 0
-3 -5 -21 -27 0
-3 -5 -22 -28 0
-3 -5 -23 -29 0
-3 -5 -24 -30 0
-3 -5 -25 -31 0
-3 -5 -26 -32 0
-3 -5 -27 -33 0
-3 -5 -28 -34 0
-3 -5 -29 -35 0
-3 -5 -30 -36 0
-3 -5 -31 -37 0
-3 -5 -32 -38 0
-3 -5 -33 -39 0
-3 -5 -34 -40 0
-3 -5 -35 -41 0
-3 -5 -36 -42 0
-3 -5 -37 -43 0
-3 -5 -38 -44 0
-3 -5 -39 -45 0
-3 -5 -40 -46 0
-3 -5 -41 -47 0
-3 -5 -42 -48 0
-3 -5 -43 -49 0
-3 -5 -44 -50 0
-3 -6 -7 -8 0
-3 -6 -7 -16 0
-3 -6 -7 -18 0
-3 -6 -8 -9 0
-3 -6 -8 -17 0
-3 -6 -8 -21 0
-3 -6 -9 -10 0
-3 -6 -9 -12 0
-3 -6 -9 -18 0
-3 -6 -9 -24 0
-3 -6 -10 -11 0
-3 -6 -10 -15 0
-3 -6 -10 -19 0
-3 -6 -10 -27 0
-3 -6 -11 -12 0
-3 -6 -11 -18 0
-3 -6 -11 -20 0
-3 -6 -11 -30 0
-3 -6 -12 -13 0
-3 -6 -12 -21 0
-3 -6 -12 -33 0
-3 -6 -13 -14 0
-3 -6 -13 -22 0
-3 -6 -13 -24 0
-3 -6 -13 -36 0
-3 -6 -14 -15 0
-3 -6 -14 -23 0
-3 -6 -14 -27 0
-3 -6 -14 -39 0
-3 -6 -15 -16 0
-3 -6 -15 -24 0
-3 -6 -15 -30 0
-3 -6 -15 -42 0
-3 -6 -16 -17 0
-3 -6 -16 -25 0
-3 -6 -16 -33 0
-3 -6 -16 -45 0
-3 -6 -17 -18 0
-3 -6 -17 -26 0
-3 -6 -17 -36 0
-3 -6 -17 -48 0
-3 -6 -18 -19 0
-3 -6 -18 -27 0
-3 -6 -18 -39 0
-3 -6 -19 -20 0
-3 -6 -19 -28 0
-3 -6 -19 -42 0
-3 -6 -20 -21 0
-3 -6 -20 -29 0
-3 -6 -20 -45 0
-3 -6 -21 -22 0
-3 -6 -21 -30 0
-3 -6 -21 -48 0
-3 -6 -22 -23 0
-3 -6 -22 -31 0
-3 -6 -23 -24 0
-3 -6 -23 -32 0
-3 -6 -24 -25 0
-3 -6 -24 -33 0
-3 -6 -25 -26 0
-3 -6 -25 -34 0
-3 -6 -26 -27 0
-3 -6 -26 -35 0
-3 -6 -27 -28 0
-3 -6 -27 -36 0
-3 -6 -28 -29 0
-3 -6 -28 -37 0
-3 -6 -29 -30 0
-3 -6 -29 -38 0
-3 -6 -30 -31 0
-3 -6 -30 -39 0
-3 -6 -31 -32 0
-3 -6 -31 -40 0
-3 -6 -32 -33 0
-3 -6 -32 -41 0
-3 -6 -33 -34 0
-3 -6 -33 -42 0
-3 -6 -34 -35 0
-3 -6 -34 -43 0
-3 -6 -35 -36 0
-3 -6 -35 -44 0
-3 -6 -36 -37 0
-3 -6 -36 -45 0
-3 -6 -37 -38 0
-3 -6 -37 -46 0
-3 -6 -38 -39 0
-3 -6 -38 -47 0
-3 -6 -39 -40 0
-3 -6 -39 -48 0
-3 -6 -40 -41 0
-3 -6 -40 -49 0
-3 -6 -41 -42 0
-3 -6 -41 -50 0
-3 -6 -42 -43 0
-3 -6 -43 -44 0
-3 -6 -44 -45 0
-3 -6 -45 -46 0
-3 -6 -46 -47 0
-3 -6 -47 -48 0
-3 -6 -48 -49 0
-3 -6 -49 -50 0
-3 -7 -8 -20 0
-3 -7 -8 -22 0
-3 -7 -9 -21 0
-3 -7 -9 -25 0
-3 -7 -10 -12 0
-3 -7 -10 -22 0
-3 -7 -10 -28 0
-3 -7 -11 -15 0
-3 -7 -11 -23 0
-3 -7 -11 -31 0
-3 -7 -12 -18 0
-3 -7 -12 -24 0
-3 -7 -12 -34 0
-3 -7 -13 -21 0
-3 -7 -13 -25 0
-3 -7 -13 -37 0
-3 -7 -14 -24 0
-3 -7 -14 -26 0
-3 -7 -14 -40 0
-3 -7 -15 -27 0
-3 -7 -15 -43 0
-3 -7 -16 -28 0
-3 -7 -16 -30 0
-3 -7 -16 -46 0
-3 -7 -17 -29 0
-3 -7 -17 -33 0
-3 -7 -17 -49 0
-3 -7 -18 -30 0
-3 -7 -18 -36 0
-3 -7 -19 -31 0
-3 -7 -19 -39 0
-3 -7 -20 -32 0
-3 -7 -20 -42 0
-3 -7 -21 -33 0
-3 -7 -21 -45 0
-3 -7 -22 -34 0
-3 -7 -22 -48 0
-3 -7 -23 -35 0
-3 -7 -24 -36 0
-3 -7 -25 -37 0
-3 -7 -26 -38 0
-3 -7 -27 -39 0
-3 -7 -28 -40 0
-3 -7 -29 -41 0
-3 -7 -30 -42 0
-3 -7 -31 -43 0
-3 -7 -32 -44 0
-3 -7 -33 -45 0
-3 -7 -34 -46 0
-3 -7 -35 -47 0
-3 -7 -36 -48 0
-3 -7 -37 -49 0
-3 -7 -38 -50 0
-3 -8 -9 -10 0
-3 -8 -9 -24 0
-3 -8 -9 -26 0
-3 -8 -10 -25 0
-3 -8 -10 -29 0
-3 -8 -11 -12 0
-3 -8 -11 -26 0
-3 -8 -11 -32 0
-3 -8 -12 -15 0
-3 -8 -12 -27 0
-3 -8 -12 -35 0
-3 -8 -13 -18 0
-3 -8 -13 -28 0
-3 -8 -13 -38 0
-3 -8 -14 -21 0
-3 -8 -14 -29 0
-3 -8 -14 -41 0
-3 -8 -15 -24 0
-3 -8 -15 -30 0
-3 -8 -15 -44 0
-3 -8 -16 -27 0
-3 -8 -16 -31 0
-3 -8 -16 -47 0
-3 -8 -17 -30 0
-3 -8 -17 -32 0
-3 -8 -17 -50 0
-3 -8 -18 -33 0
-3 -8 -19 -34 0
-3 -8 -19 -36 0
-3 -8 -20 -35 0
-3 -8 -20 -39 0
-3 -8 -21 -36 0
-3 -8 -21 -42 0
-3 -8 -22 -37 0
-3 -8 -22 -45 0
-3 -8 -23 -38 0
-3 -8 -23 -48 0
-3 -8 -24 -39 0
-3 -8 -25 -40 0
-3 -8 -26 -41 0
-3 -8 -27 -42 0
-3 -8 -28 -43 0
-3 -8 -29 -44 0
-3 -8 -30 -45 0
-3 -8 -31 -46 0
-3 -8 -32 -47 0
-3 -8 -33 -48 0
-3 -8 -34 -49 0
-3 -8 -35 -50 0
-3 -9 -10 -12 0
-3 -9 -10 -28 0
-3 -9 -10 -30 0
-3 -9 -11 -13 0
-3 -9 -11 -29 0
-3 -9 -11 -33 0
-3 -9 -12 -14 0
-3 -9 -12 -30 0
-3 -9 -12 -36 0
-3 -9 -13 -15 0
-3 -9 -13 -31 0
-3 -9 -13 -39 0
-3 -9 -14 -16 0
-3 -9 -14 -18 0
-3 -9 -14 -32 0
-3 -9 -14 -42 0
-3 -9 -15 -17 0
-3 -9 -15 -21 0
-3 -9 -15 -33 0
-3 -9 -15 -45 0
-3 -9 -16 -18 0
-3 -9 -16 -24 0
-3 -9 -16 -34 0
-3 -9 -16 -48 0
-3 -9 -17 -19 0
-3 -9 -17 -27 0
-3 -9 -17 -35 0
-3 -9 -18 -20 0
-3 -9 -18 -30 0
-3 -9 -18 -36 0
-3 -9 -19 -21 0
-3 -9 -19 -33 0
-3 -9 -19 -37 0
-3 -9 -20 -22 0
-3 -9 -20 -36 0
-3 -9 -20 -38 0
-3 -9 -21 -23 0
-3 -9 -21 -39 0
-3 -9 -22 -24 0
-3 -9 -22 -40 0
-3 -9 -22 -42 0
-3 -9 -23 -25 0
-3 -9 -23 -41 0
-3 -9 -23 -45 0
-3 -9 -24 -26 0
-3 -9 -24 -42 0
-3 -9 -24 -48 0
-3 -9 -25 -27 0
-3 -9 -25 -43 0
-3 -9 -26 -28 0
-3 -9 -26 -44 0
-3 -9 -27 -29 0
-3 -9 -27 -45 0
-3 -9 -28 -30 0
-3 -9 -28 -46 0
-3 -9 -29 -31 0
-3 -9 -29 -47 0
-3 -9 -30 -32 0
-3 -9 -30 -48 0
-3 -9 -31 -33 0
-3 -9 -31 -49 0
-3 -9 -32 -34 0
-3 -9 -32 -50 0
-3 -9 -33 -35 0
-3 -9 -34 -36 0
-3 -9 -35 -37 0
-3 -9 -36 -38 0
-3 -9 -37 -39 0
-3 -9 -38 -40 0
-3 -9 -39 -41 0
-3 -9 -40 -42 0
-3 -9 -41 -43 0
-3 -9 -42 -44 0
-3 -9 -43 -45 0
-3 -9 -44 -46 0
-3 -9 -45 -47 0
-3 -9 -46 -48 0
-3 -9 -47 -49 0
-3 -9 -48 -50 0
-3 -10 -11 -32 0
-3 -10 -11 -34 0
-3 -10 -12 -13 0
-3 -10 -12 -33 0
-3 -10 -12 -37 0
-3 -10 -13 -34 0
-3 -10 -13 -40 0
-3 -10 -14 -15 0
-3 -10 -14 -35 0
-3 -10 -14 -43 0
-3 -10 -15 -18 0
-3 -10 -15 -36 0
-3 -10 -15 -46 0
-3 -10 -16 -21 0
-3 -10 -16 -37 0
-3 -10 -16 -49 0
-3 -10 -17 -24 0
-3 -10 -17 -38 0
-3 -10 -18 -27 0
-3 -10 -18 -39 0
-3 -10 -19 -30 0
-3 -10 -19 -40 0
-3 -10 -20 -33 0
-3 -10 -20 -41 0
-3 -10 -21 -36 0
-3 -10 -21 -42 0
-3 -10 -22 -39 0
-3 -10 -22 -43 0
-3 -10 -23 -42 0
-3 -10 -23 -44 0
-3 -10 -24 -45 0
-3 -10 -25 -46 0
-3 -10 -25 -48 0
-3 -10 -26 -47 0
-3 -10 -27 -48 0
-3 -10 -28 -49 0
-3 -10 -29 -50 0
-3 -11 -12 -14 0
-3 -11 -12 -36 0
-3 -11 -12 -38 0
-3 -11 -13 -37 0
-3 -11 -13 -41 0
-3 -11 -14 -38 0
-3 -11 -14 -44 0
-3 -11 -15 -39 0
-3 -11 -15 -47 0
-3 -11 -16 -18 0
-3 -11 -16 -40 0
-3 -11 -16 -50 0
-3 -11 -17 -21 0
-3 -11 -17 -41 0
-3 -11 -18 -24 0
-3 -11 -18 -42 0
-3 -11 -19 -27 0
-3 -11 -19 -43 0
-3 -11 -20 -30 0
-3 -11 -20 -44 0
-3 -11 -21 -33 0
-3 -11 -21 -45 0
-3 -11 -22 -36 0
-3 -11 -22 -46 0
-3 -11 -23 -39 0
-3 -11 -23 -47 0
-3 -11 -24 -42 0
-3 -11 -24 -48 0
-3 -11 -25 -45 0
-3 -11 -25 -49 0
-3 -11 -26 -48 0
-3 -11 -26 -50 0
-3 -12 -13 -16 0
-3 -12 -13 -40 0
-3 -12 -13 -42 0
-3 -12 -14 -17 0
-3 -12 -14 -41 0
-3 -12 -14 -45 0
-3 -12 -15 -16 0
-3 -12 -15 -18 0
-3 -12 -15 -42 0
-3 -12 -15 -48 0
-3 -12 -16 -19 0
-3 -12 -16 -43 0
-3 -12 -17 -18 0
-3 -12 -17 -20 0
-3 -12 -17 -44 0
-3 -12 -18 -21 0
-3 -12 -18 -45 0
-3 -12 -19 -22 0
-3 -12 -19 -24 0
-3 -12 -19 -46 0
-3 -12 -20 -23 0
-3 -12 -20 -27 0
-3 -12 -20 -47 0
-3 -12 -21 -24 0
-3 -12 -21 -30 0
-3 -12 -21 -48 0
-3 -12 -22 -25 0
-3 -12 -22 -33 0
-3 -12 -22 -49 0
-3 -12 -23 -26 0
-3 -12 -23 -36 0
-3 -12 -23 -50 0
-3 -12 -24 -27 0
-3 -12 -24 -39 0
-3 -12 -25 -28 0
-3 -12 -25 -42 0
-3 -12 -26 -29 0
-3 -12 -26 -45 0
-3 -12 -27 -30 0
-3 -12 -27 -48 0
-3 -12 -28 -31 0
-3 -12 -29 -32 0
-3 -12 -30 -33 0
-3 -12 -31 -34 0
-3 -12 -32 -35 0
-3 -12 -33 -36 0
-3 -12 -34 -37 0
-3 -12 -35 -38 0
-3 -12 -36 -39 0
-3 -12 -37 -40 0
-3 -12 -38 -41 0
-3 -12 -39 -42 0
-3 -12 -40 -43 0
-3 -12 -41 -44 0
-3 -12 -42 -45 0
-3 -12 -43 -46 0
-3 -12 -44 -47 0
-3 -12 -45 -48 0
-3 -12 -46 -49 0
-3 -12 -47 -50 0
-3 -13 -14 -44 0
-3 -13 -14 -46 0
-3 -13 -15 -17 0
-3 -13 -15 -45 0
-3 -13 -15 -49 0
-3 -13 -16 -46 0
-3 -13 -17 -47 0
-3 -13 -18 -48 0
-3 -13 -19 -21 0
-3 -13 -19 -49 0
-3 -13 -20 -24 0
-3 -13 -20 -50 0
-3 -13 -21 -27 0
-3 -13 -22 -30 0
-3 -13 -23 -33 0
-3 -13 -24 -36 0
-3 -13 -25 -39 0
-3 -13 -26 -42 0
-3 -13 -27 -45 0
-3 -13 -28 -48 0
-3 -14 -15 -18 0
-3 -14 -15 -48 0
-3 -14 -15 -50 0
-3 -14 -16 -49 0
-3 -14 -17 -50 0
-3 -14 -18 -19 0
-3 -14 -20 -21 0
-3 -14 -21 -24 0
-3 -14 -22 -27 0
-3 -14 -23 -30 0
-3 -14 -24 -33 0
-3 -14 -25 -36 0
-3 -14 -26 -39 0
-3 -14 -27 -42 0
-3 -14 -28 -45 0
-3 -14 -29 -48 0
-3 -15 -16 -20 0
-3 -15 -17 -21 0
-3 -15 -18 -20 0
-3 -15 -18 -22 0
-3 -15 -19 -23 0
-3 -15 -20 -24 0
-3 -15 -21 -25 0
-3 -15 -22 -24 0
-3 -15 -22 -26 0
-3 -15 -23 -27 0
-3 -15 -24 -28 0
-3 -15 -24 -30 0
-3 -15 -25 -29 0
-3 -15 -25 -33 0
-3 -15 -26 -30 0
-3 -15 -26 -36 0
-3 -15 -27 -31 0
-3 -15 -27 -39 0
-3 -15 -28 -32 0
-3 -15 -28 -42 0
-3 -15 -29 -33 0
-3 -15 -29 -45 0
-3 -15 -30 -34 0
-3 -15 -30 -48 0
-3 -15 -31 -35 0
-3 -15 -32 -36 0
-3 -15 -33 -37 0
-3 -15 -34 -38 0
-3 -15 -35 -39 0
-3 -15 -36 -40 0
-3 -15 -37 -41 0
-3 -15 -38 -42 0
-3 -15 -39 -43 0
-3 -15 -40 -44 0
-3 -15 -41 -45 0
-3 -15 -42 -46 0
-3 -15 -43 -47 0
-3 -15 -44 -48 0
-3 -15 -45 -49 0
-3 -15 -46 -50 0
-3 -16 -18 -21 0
-3 -16 -21 -22 0
-3 -16 -23 -24 0
-3 -16 -24 -27 0
-3 -16 -25 -30 0
-3 -16 -26 -33 0
-3 -16 -27 -36 0
-3 -16 -28 -39 0
-3 -16 -29 -42 0
-3 -16 -30 -45 0
-3 -16 -31 -48 0
-3 -17 -18 -22 0
-3 -17 -21 -23 0
-3 -17 -25 -27 0
-3 -17 -26 -30 0
-3 -17 -27 -33 0
-3 -17 -28 -36 0
-3 -17 -29 -39 0
-3 -17 -30 -42 0
-3 -17 -31 -45 0
-3 -17 -32 -48 0
-3 -18 -19 -24 0
-3 -18 -20 -25 0
-3 -18 -21 -24 0
-3 -18 -21 -26 0
-3 -18 -22 -27 0
-3 -18 -23 -28 0
-3 -18 -24 -25 0
-3 -18 -24 -29 0
-3 -18 -25 -30 0
-3 -18 -26 -27 0
-3 -18 -26 -31 0
-3 -18 -27 -30 0
-3 -18 -27 -32 0
-3 -18 -28 -33 0
-3 -18 -29 -34 0
-3 -18 -29 -36 0
-3 -18 -30 -35 0
-3 -18 -30 -39 0
-3 -18 -31 -36 0
-3 -18 -31 -42 0
-3 -18 -32 -37 0
-3 -18 -32 -45 0
-3 -18 -33 -38 0
-3 -18 -33 -48 0
-3 -18 -34 -39 0
-3 -18 -35 -40 0
-3 -18 -36 -41 0
-3 -18 -37 -42 0
-3 -18 -38 -43 0
-3 -18 -39 -44 0
-3 -18 -40 -45 0
-3 -18 -41 -46 0
-3 -18 -42 -47 0
-3 -18 -43 -48 0
-3 -18 -44 -49 0
-3 -18 -45 -50 0
-3 -19 -21 -25 0
-3 -19 -24 -26 0
-3 -19 -28 -30 0
-3 -19 -29 -33 0
-3 -19 -30 -36 0
-3 -19 -31 -39 0
-3 -19 -32 -42 0
-3 -19 -33 -45 0
-3 -19 -34 -48 0
-3 -20 -21 -26 0
-3 -20 -24 -27 0
-3 -20 -27 -28 0
-3 -20 -29 -30 0
-3 -20 -30 -33 0
-3 -20 -31 -36 0
-3 -20 -32 -39 0
-3 -20 -33 -42 0
-3 -20 -34 -45 0
-3 -20 -35 -48 0
-3 -21 -22 -28 0
-3 -21 -23 -29 0
-3 -21 -24 -28 0
-3 -21 -24 -30 0
-3 -21 -25 -31 0
-3 -21 -26 -32 0
-3 -21 -27 -29 0
-3 -21 -27 -33 0
-3 -21 -28 -34 0
-3 -21 -29 -35 0
-3 -21 -30 -36 0
-3 -21 -31 -33 0
-3 -21 -31 -37 0
-3 -21 -32 -36 0
-3 -21 -32 -38 0
-3 -21 -33 -39 0
-3 -21 -34 -40 0
-3 -21 -34 -42 0
-3 -21 -35 -41 0
-3 -21 -35 -45 0
-3 -21 -36 -42 0
-3 -21 -36 -48 0
-3 -21 -37 -43 0
-3 -21 -38 -44 0
-3 -21 -39 -45 0
-3 -21 -40 -46 0
-3 -21 -41 -47 0
-3 -21 -42 -48 0
-3 -21 -43 -49 0
-3 -21 -44 -50 0
-3 -22 -24 -29 0
-3 -22 -27 -30 0
-3 -22 -30 -31 0
-3 -22 -32 -33 0
-3 -22 -33 -36 0
-3 -22 -34 -39 0
-3 -22 -35 -42 0
-3 -22 -36 -45 0
-3 -22 -37 -48 0
-3 -23 -24 -30 0
-3 -23 -27 -31 0
-3 -23 -30 -32 0
-3 -23 -34 -36 0
-3 -23 -35 -39 0
-3 -23 -36 -42 0
-3 -23 -37 -45 0
-3 -23 -38 -48 0
-3 -24 -25 -32 0
-3 -24 -26 -33 0
-3 -24 -27 -32 0
-3 -24 -27 -34 0
-3 -24 -28 -35 0
-3 -24 -29 -36 0
-3 -24 -30 -33 0
-3 -24 -30 -37 0
-3 -24 -31 -38 0
-3 -24 -32 -39 0
-3 -24 -33 -34 0
-3 -24 -33 -40 0
-3 -24 -34 -41 0
-3 -24 -35 -36 0
-3 -24 -35 -42 0
-3 -24 -36 -39 0
-3 -24 -36 -43 0
-3 -24 -37 -42 0
-3 -24 -37 -44 0
-3 -24 -38 -45 0
-3 -24 -39 -46 0
-3 -24 -39 -48 0
-3 -24 -40 -47 0
-3 -24 -41 -48 0
-3 -24 -42 -49 0
-3 -24 -43 -50 0
-3 -25 -27 -33 0
-3 -25 -30 -34 0
-3 -25 -33 -35 0
-3 -25 -37 -39 0
-3 -25 -38 -42 0
-3 -25 -39 -45 0
-3 -25 -40 -48 0
-3 -26 -27 -34 0
-3 -26 -30 -35 0
-3 -26 -33 -36 0
-3 -26 -36 -37 0
-3 -26 -38 -39 0
-3 -26 -39 -42 0
-3 -26 -40 -45 0
-3 -26 -41 -48 0
-3 -27 -28 -36 0
-3 -27 -29 -37 0
-3 -27 -30 -36 0
-3 -27 -30 -38 0
-3 -27 -31 -39 0
-3 -27 -32 -40 0
-3 -27 -33 -37 0
-3 -27 -33 -41 0
-3 -27 -34 -42 0
-3 -27 -35 -43 0
-3 -27 -36 -38 0
-3 -27 -36 -44 0
-3 -27 -37 -45 0
-3 -27 -38 -46 0
-3 -27 -39 -47 0
-3 -27 -40 -42 0
-3 -27 -40 -48 0
-3 -27 -41 -45 0
-3 -27 -41 -49 0
-3 -27 -42 -48 0
-3 -27 -42 -50 0
-3 -28 -30 -37 0
-3 -28 -33 -38 0
-3 -28 -36 -39 0
-3 -28 -39 -40 0
-3 -28 -41 -42 0
-3 -28 -42 -45 0
-3 -28 -43 -48 0
-3 -29 -30 -38 0
-3 -29 -33 -39 0
-3 -29 -36 -40 0
-3 -29 -39 -41 0
-3 -29 -43 -45 0
-3 -29 -44 -48 0
-3 -30 -31 -40 0
-3 -30 -32 -41 0
-3 -30 -33 -40 0
-3 -30 -33 -42 0
-3 -30 -34 -43 0
-3 -30 -35 -44 0
-3 -30 -36 -41 0
-3 -30 -36 -45 0
-3 -30 -37 -46 0
-3 -30 -38 -47 0
-3 -30 -39 -42 0
-3 -30 -39 -48 0
-3 -30 -40 -49 0
-3 -30 -41 -50 0
-3 -30 -42 -43 0
-3 -30 -44 -45 0
-3 -30 -45 -48 0
-3 -31 -33 -41 0
-3 -31 -36 -42 0
-3 -31 -39 -43 0
-3 -31 -42 -44 0
-3 -31 -46 -48 0
-3 -32 -33 -42 0
-3 -32 -36 -43 0
-3 -32 -39 -44 0
-3 -32 -42 -45 0
-3 -32 -45 -46 0
-3 -32 -47 -48 0
-3 -33 -34 -44 0
-3 -33 -35 -45 0
-3 -33 -36 -44 0
-3 -33 -36 -46 0
-3 -33 -37 -47 0
-3 -33 -38 -48 0
-3 -33 -39 -45 0
-3 -33 -39 -49 0
-3 -33 -40 -50 0
-3 -33 -42 -46 0
-3 -33 -45 -47 0
-3 -34 -36 -45 0
-3 -34 -39 -46 0
-3 -34 -42 -47 0
-3 -34 -45 -48 0
-3 -34 -48 -49 0
-3 -35 -36 -46 0
-3 -35 -39 -47 0
-3 -35 -42 -48 0
-3 -35 -45 -49 0
-3 -35 -48 -50 0
-3 -36 -37 -48 0
-3 -36 -38 -49 0
-3 -36 -39 -48 0
-3 -36 -39 -50 0
-3 -36 -42 -49 0
-3 -36 -45 -50 0
-3 -37 -39 -49 0
-3 -37 -42 -50 0
-3 -38 -39 -50 0
-4 -5 -6 -7 0
-4 -5 -6 -9 0
-4 -5 -6 -11 0
-4 -5 -7 -10 0
-4 -5 -7 -14 0
-4 -5 -8 -11 0
-4 -5 -8 -13 0
-4 -5 -8 -17 0
-4 -5 -9 -12 0
-4 -5 -9 -16 0
-4 -5 -9 -20 0
-4 -5 -10 -13 0
-4 -5 -10 -19 0
-4 -5 -10 -23 0
-4 -5 -11 -14 0
-4 -5 -11 -22 0
-4 -5 -11 -26 0
-4 -5 -12 -15 0
-4 -5 -12 -25 0
-4 -5 -12 -29 0
-4 -5 -13 -16 0
-4 -5 -13 -28 0
-4 -5 -13 -32 0
-4 -5 -14 -17 0
-4 -5 -14 -31 0
-4 -5 -14 -35 0
-4 -5 -15 -18 0
-4 -5 -15 -34 0
-4 -5 -15 -38 0
-4 -5 -16 -19 0
-4 -5 -16 -37 0
-4 -5 -16 -41 0
-4 -5 -17 -20 0
-4 -5 -17 -40 0
-4 -5 -17 -44 0
-4 -5 -18 -21 0
-4 -5 -18 -43 0
-4 -5 -18 -47 0
-4 -5 -19 -22 0
-4 -5 -19 -46 0
-4 -5 -19 -50 0
-4 -5 -20 -23 0
-4 -5 -20 -49 0
-4 -5 -21 -24 0
-4 -5 -22 -25 0
-4 -5 -23 -26 0
-4 -5 -24 -27 0
-4 -5 -25 -28 0
-4 -5 -26 -29 0
-4 -5 -27 -30 0
-4 -5 -28 -31 0
-4 -5 -29 -32 0
-4 -5 -30 -33 0
-4 -5 -31 -34 0
-4 -5 -32 -35 0
-4 -5 -33 -36 0
-4 -5 -34 -37 0
-4 -5 -35 -38 0
-4 -5 -36 -39 0
-4 -5 -37 -40 0
-4 -5 -38 -41 0
-4 -5 -39 -42 0
-4 -5 -40 -43 0
-4 -5 -41 -44 0
-4 -5 -42 -45 0
-4 -5 -43 -46 0
-4 -5 -44 -47 0
-4 -5 -45 -48 0
-4 -5 -46 -49 0
-4 -5 -47 -50 0
-4 -6 -7 -13 0
-4 -6 -7 -15 0
-4 -6 -8 -10 0
-4 -6 -8 -14 0
-4 -6 -8 -18 0
-4 -6 -9 -13 0
-4 -6 -9 -15 0
-4 -6 -9 -21 0
-4 -6 -10 -16 0
-4 -6 -10 -24 0
-4 -6 -11 -17 0
-4 -6 -11 -19 0
-4 -6 -11 -27 0
-4 -6 -12 -18 0
-4 -6 -12 -22 0
-4 -6 -12 -30 0
-4 -6 -13 -19 0
-4 -6 -13 -25 0
-4 -6 -13 -33 0
-4 -6 -14 -20 0
-4 -6 -14 -28 0
-4 -6 -14 -36 0
-4 -6 -15 -21 0
-4 -6 -15 -31 0
-4 -6 -15 -39 0
-4 -6 -16 -22 0
-4 -6 -16 -34 0
-4 -6 -16 -42 0
-4 -6 -17 -23 0
-4 -6 -17 -37 0
-4 -6 -17 -45 0
-4 -6 -18 -24 0
-4 -6 -18 -40 0
-4 -6 -18 -48 0
-4 -6 -19 -25 0
-4 -6 -19 -43 0
-4 -6 -20 -26 0
-4 -6 -20 -46 0
-4 -6 -21 -27 0
-4 -6 -21 -49 0
-4 -6 -22 -28 0
-4 -6 -23 -29 0
-4 -6 -24 -30 0
-4 -6 -25 -31 0
-4 -6 -26 -32 0
-4 -6 -27 -33 0
-4 -6 -28 -34 0
-4 -6 -29 -35 0
-4 -6 -30 -36 0
-4 -6 -31 -37 0
-4 -6 -32 -38 0
-4 -6 -33 -39 0
-4 -6 -34 -40 0
-4 -6 -35 -41 0
-4 -6 -36 -42 0
-4 -6 -37 -43 0
-4 -6 -38 -44 0
-4 -6 -39 -45 0
-4 -6 -40 -46 0
-4 -6 -41 -47 0
-4 -6 -42 -48 0
-4 -6 -43 -49 0
-4 -6 -44 -50 0
-4 -7 -8 -9 0
-4 -7 -8 -17 0
-4 -7 -8 -19 0
-4 -7 -9 -10 0
-4 -7 -9 -18 0
-4 -7 -9 -22 0
-4 -7 -10 -11 0
-4 -7 -10 -13 0
-4 -7 -10 -19 0
-4 -7 -10 -25 0
-4 -7 -11 -12 0
-4 -7 -11 -16 0
-4 -7 -11 -20 0
-4 -7 -11 -28 0
-4 -7 -12 -13 0
-4 -7 -12 -19 0
-4 -7 -12 -21 0
-4 -7 -12 -31 0
-4 -7 -13 -14 0
-4 -7 -13 -22 0
-4 -7 -13 -34 0
-4 -7 -14 -15 0
-4 -7 -14 -23 0
-4 -7 -14 -25 0
-4 -7 -14 -37 0
-4 -7 -15 -16 0
-4 -7 -15 -24 0
-4 -7 -15 -28 0
-4 -7 -15 -40 0
-4 -7 -16 -17 0
-4 -7 -16 -25 0
-4 -7 -16 -31 0
-4 -7 -16 -43 0
-4 -7 -17 -18 0
-4 -7 -17 -26 0
-4 -7 -17 -34 0
-4 -7 -17 -46 0
-4 -7 -18 -19 0
-4 -7 -18 -27 0
-4 -7 -18 -37 0
-4 -7 -18 -49 0
-4 -7 -19 -20 0
-4 -7 -19 -28 0
-4 -7 -19 -40 0
-4 -7 -20 -21 0
-4 -7 -20 -29 0
-4 -7 -20 -43 0
-4 -7 -21 -22 0
-4 -7 -21 -30 0
-4 -7 -21 -46 0
-4 -7 -22 -23 0
-4 -7 -22 -31 0
-4 -7 -22 -49 0
-4 -7 -23 -24 0
-4 -7 -23 -32 0
-4 -7 -24 -25 0
-4 -7 -24 -33 0
-4 -7 -25 -26 0
-4 -7 -25 -34 0
-4 -7 -26 -27 0
-4 -7 -26 -35 0
-4 -7 -27 -28 0
-4 -7 -27 -36 0
-4 -7 -28 -29 0
-4 -7 -28 -37 0
-4 -7 -29 -30 0
-4 -7 -29 -38 0
-4 -7 -30 -31 0
-4 -7 -30 -39 0
-4 -7 -31 -32 0
-4 -7 -31 -40 0
-4 -7 -32 -33 0
-4 -7 -32 -41 0
-4 -7 -33 -34 0
-4 -7 -33 -42 0
-4 -7 -34 -35 0
-4 -7 -34 -43 0
-4 -7 -35 -36 0
-4 -7 -35 -44 0
-4 -7 -36 -37 0
-4 -7 -36 -45 0
-4 -7 -37 -38 0
-4 -7 -37 -46 0
-4 -7 -38 -39 0
-4 -7 -38 -47 0
-4 -7 -39 -40 0
-4 -7 -39 -48 0
-4 -7 -40 -41 0
-4 -7 -40 -49 0
-4 -7 -41 -42 0
-4 -7 -41 -50 0
-4 -7 -42 -43 0
-4 -7 -43 -44 0
-4 -7 -44 -45 0
-4 -7 -45 -46 0
-4 -7 -46 -47 0
-4 -7 -47 -48 0
-4 -7 -48 -49 0
-4 -7 -49 -50 0
-4 -8 -9 -21 0
-4 -8 -9 -23 0
-4 -8 -10 -22 0
-4 -8 -10 -26 0
-4 -8 -11 -13 0
-4 -8 -11 -23 0
-4 -8 -11 -29 0
-4 -8 -12 -16 0
-4 -8 -12 -24 0
-4 -8 -12 -32 0
-4 -8 -13 -19 0
-4 -8 -13 -25 0
-4 -8 -13 -35 0
-4 -8 -14 -22 0
-4 -8 -14 -26 0
-4 -8 -14 -38 0
-4 -8 -15 -25 0
-4 -8 -15 -27 0
-4 -8 -15 -41 0
-4 -8 -16 -28 0
-4 -8 -16 -44 0
-4 -8 -17 -29 0
-4 -8 -17 -31 0
-4 -8 -17 -47 0
-4 -8 -18 -30 0
-4 -8 -18 -34 0
-4 -8 -18 -50 0
-4 -8 -19 -31 0
-4 -8 -19 -37 0
-4 -8 -20 -32 0
-4 -8 -20 -40 0
-4 -8 -21 -33 0
-4 -8 -21 -43 0
-4 -8 -22 -34 0
-4 -8 -22 -46 0
-4 -8 -23 -35 0
-4 -8 -23 -49 0
-4 -8 -24 -36 0
-4 -8 -25 -37 0
-4 -8 -26 -38 0
-4 -8 -27 -39 0
-4 -8 -28 -40 0
-4 -8 -29 -41 0
-4 -8 -30 -42 0
-4 -8 -31 -43 0
-4 -8 -32 -44 0
-4 -8 -33 -45 0
-4 -8 -34 -46 0
-4 -8 -35 -47 0
-4 -8 -36 -48 0
-4 -8 -37 -49 0
-4 -8 -38 -50 0
-4 -9 -10 -11 0
-4 -9 -10 -25 0
-4 -9 -10 -27 0
-4 -9 -11 -26 0
-4 -9 -11 -30 0
-4 -9 -12 -13 0
-4 -9 -12 -27 0
-4 -9 -12 -33 0
-4 -9 -13 -16 0
-4 -9 -13 -28 0
-4 -9 -13 -36 0
-4 -9 -14 -19 0
-4 -9 -14 -29 0
-4 -9 -14 -39 0
-4 -9 -15 -22 0
-4 -9 -15 -30 0
-4 -9 -15 -42 0
-4 -9 -16 -25 0
-4 -9 -16 -31 0
-4 -9 -16 -45 0
-4 -9 -17 -28 0
-4 -9 -17 -32 0
-4 -9 -17 -48 0
-4 -9 -18 -31 0
-4 -9 -18 -33 0
-4 -9 -19 -34 0
-4 -9 -20 -35 0
-4 -9 -20 -37 0
-4 -9 -21 -36 0
-4 -9 -21 -40 0
-4 -9 -22 -37 0
-4 -9 -22 -43 0
-4 -9 -23 -38 0
-4 -9 -23 -46 0
-4 -9 -24 -39 0
-4 -9 -24 -49 0
-4 -9 -25 -40 0
-4 -9 -26 -41 0
-4 -9 -27 -42 0
-4 -9 -28 -43 0
-4 -9 -29 -44 0
-4 -9 -30 -45 0
-4 -9 -31 -46 0
-4 -9 -32 -47 0
-4 -9 -33 -48 0
-4 -9 -34 -49 0
-4 -9 -35 -50 0
-4 -10 -11 -13 0
-4 -10 -11 -29 0
-4 -10 -11 -31 0
-4 -10 -12 -14 0
-4 -10 -12 -30 0
-4 -10 -12 -34 0
-4 -10 -13 -15 0
-4 -10 -13 -31 0
-4 -10 -13 -37 0
-4 -10 -14 -16 0
-4 -10 -14 -32 0
-4 -10 -14 -40 0
-4 -10 -15 -17 0
-4 -10 -15 -19 0
-4 -10 -15 -33 0
-4 -10 -15 -43 0
-4 -10 -16 -18 0
-4 -10 -16 -22 0
-4 -10 -16 -34 0
-4 -10 -16 -46 0
-4 -10 -17 -19 0
-4 -10 -17 -25 0
-4 -10 -17 -35 0
-4 -10 -17 -49 0
-4 -10 -18 -20 0
-4 -10 -18 -28 0
-4 -10 -18 -36 0
-4 -10 -19 -21 0
-4 -10 -19 -31 0
-4 -10 -19 -37 0
-4 -10 -20 -22 0
-4 -10 -20 -34 0
-4 -10 -20 -38 0
-4 -10 -21 -23 0
-4 -10 -21 -37 0
-4 -10 -21 -39 0
-4 -10 -22 -24 0
-4 -10 -22 -40 0
-4 -10 -23 -25 0
-4 -10 -23 -41 0
-4 -10 -23 -43 0
-4 -10 -24 -26 0
-4 -10 -24 -42 0
-4 -10 -24 -46 0
-4 -10 -25 -27 0
-4 -10 -25 -43 0
-4 -10 -25 -49 0
-4 -10 -26 -28 0
-4 -10 -26 -44 0
-4 -10 -27 -29 0
-4 -10 -27 -45 0
-4 -10 -28 -30 0
-4 -10 -28 -46 0
-4 -10 -29 -31 0
-4 -10 -29 -47 0
-4 -10 -30 -32 0
-4 -10 -30 -48 0
-4 -10 -31 -33 0
-4 -10 -31 -49 0
-4 -10 -32 -34 0
-4 -10 -32 -50 0
-4 -10 -33 -35 0
-4 -10 -34 -36 0
-4 -10 -35 -37 0
-4 -10 -36 -38 0
-4 -10 -37 -39 0
-4 -10 -38 -40 0
-4 -10 -39 -41 0
-4 -10 -40 -42 0
-4 -10 -41 -43 0
-4 -10 -42 -44 0
-4 -10 -43 -45 0
-4 -10 -44 -46 0
-4 -10 -45 -47 0
-4 -10 -46 -48 0
-4 -10 -47 -49 0
-4 -10 -48 -50 0
-4 -11 -12 -33 0
-4 -11 -12 -35 0
-4 -11 -13 -14 0
-4 -11 -13 -34 0
-4 -11 -13 -38 0
-4 -11 -14 -35 0
-4 -11 -14 -41 0
-4 -11 -15 -16 0
-4 -11 -15 -36 0
-4 -11 -15 -44 0
-4 -11 -16 -19 0
-4 -11 -16 -37 0
-4 -11 -16 -47 0
-4 -11 -17 -22 0
-4 -11 -17 -38 0
-4 -11 -17 -50 0
-4 -11 -18 -25 0
-4 -11 -18 -39 0
-4 -11 -19 -28 0
-4 -11 -19 -40 0
-4 -11 -20 -31 0
-4 -11 -20 -41 0
-4 -11 -21 -34 0
-4 -11 -21 -42 0
-4 -11 -22 -37 0
-4 -11 -22 -43 0
-4 -11 -23 -40 0
-4 -11 -23 -44 0
-4 -11 -24 -43 0
-4 -11 -24 -45 0
-4 -11 -25 -46 0
-4 -11 -26 -47 0
-4 -11 -26 -49 0
-4 -11 -27 -48 0
-4 -11 -28 -49 0
-4 -11 -29 -50 0
-4 -12 -13 -15 0
-4 -12 -13 -37 0
-4 -12 -13 -39 0
-4 -12 -14 -38 0
-4 -12 -14 -42 0
-4 -12 -15 -39 0
-4 -12 -15 -45 0
-4 -12 -16 -40 0
-4 -12 -16 -48 0
-4 -12 -17 -19 0
-4 -12 -17 -41 0
-4 -12 -18 -22 0
-4 -12 -18 -42 0
-4 -12 -19 -25 0
-4 -12 -19 -43 0
-4 -12 -20 -28 0
-4 -12 -20 -44 0
-4 -12 -21 -31 0
-4 -12 -21 -45 0
-4 -12 -22 -34 0
-4 -12 -22 -46 0
-4 -12 -23 -37 0
-4 -12 -23 -47 0
-4 -12 -24 -40 0
-4 -12 -24 -48 0
-4 -12 -25 -43 0
-4 -12 -25 -49 0
-4 -12 -26 -46 0
-4 -12 -26 -50 0
-4 -12 -27 -49 0
-4 -13 -14 -17 0
-4 -13 -14 -41 0
-4 -13 -14 -43 0
-4 -13 -15 -18 0
-4 -13 -15 -42 0
-4 -13 -15 -46 0
-4 -13 -16 -17 0
-4 -13 -16 -19 0
-4 -13 -16 -43 0
-4 -13 -16 -49 0
-4 -13 -17 -20 0
-4 -13 -17 -44 0
-4 -13 -18 -19 0
-4 -13 -18 -21 0
-4 -13 -18 -45 0
-4 -13 -19 -22 0
-4 -13 -19 -46 0
-4 -13 -20 -23 0
-4 -13 -20 -25 0
-4 -13 -20 -47 0
-4 -13 -21 -24 0
-4 -13 -21 -28 0
-4 -13 -21 -48 0
-4 -13 -22 -25 0
-4 -13 -22 -31 0
-4 -13 -22 -49 0
-4 -13 -23 -26 0
-4 -13 -23 -34 0
-4 -13 -23 -50 0
-4 -13 -24 -27 0
-4 -13 -24 -37 0
-4 -13 -25 -28 0
-4 -13 -25 -40 0
-4 -13 -26 -29 0
-4 -13 -26 -43 0
-4 -13 -27 -30 0
-4 -13 -27 -46 0
-4 -13 -28 -31 0
-4 -13 -28 -49 0
-4 -13 -29 -32 0
-4 -13 -30 -33 0
-4 -13 -31 -34 0
-4 -13 -32 -35 0
-4 -13 -33 -36 0
-4 -13 -34 -37 0
-4 -13 -35 -38 0
-4 -13 -36 -39 0
-4 -13 -37 -40 0
-4 -13 -38 -41 0
-4 -13 -39 -42 0
-4 -13 -40 -43 0
-4 -13 -41 -44 0
-4 -13 -42 -45 0
-4 -13 -43 -46 0
-4 -13 -44 -47 0
-4 -13 -45 -48 0
-4 -13 -46 -49 0
-4 -13 -47 -50 0
-4 -14 -15 -45 0
-4 -14 -15 -47 0
-4 -14 -16 -18 0
-4 -14 -16 -46 0
-4 -14 -16 -50 0
-4 -14 -17 -47 0
-4 -14 -18 -48 0
-4 -14 -19 -49 0
-4 -14 -20 -22 0
-4 -14 -20 -50 0
-4 -14 -21 -25 0
-4 -14 -22 -28 0
-4 -14 -23 -31 0
-4 -14 -24 -34 0
-4 -14 -25 -37 0
-4 -14 -26 -40 0
-4 -14 -27 -43 0
-4 -14 -28 -46 0
-4 -14 -29 -49 0
-4 -15 -16 -19 0
-4 -15 -16 -49 0
-4 -15 -17 -50 0
-4 -15 -19 -20 0
-4 -15 -21 -22 0
-4 -15 -22 -25 0
-4 -15 -23 -28 0
-4 -15 -24 -31 0
-4 -15 -25 -34 0
-4 -15 -26 -37 0
-4 -15 -27 -40 0
-4 -15 -28 -43 0
-4 -15 -29 -46 0
-4 -15 -30 -49 0
-4 -16 -17 -21 0
-4 -16 -18 -22 0
-4 -16 -19 -21 0
-4 -16 -19 -23 0
-4 -16 -20 -24 0
-4 -16 -21 -25 0
-4 -16 -22 -26 0
-4 -16 -23 -25 0
-4 -16 -23 -27 0
-4 -16 -24 -28 0
-4 -16 -25 -29 0
-4 -16 -25 -31 0
-4 -16 -26 -30 0
-4 -16 -26 -34 0
-4 -16 -27 -31 0
-4 -16 -27 -37 0
-4 -16 -28 -32 0
-4 -16 -28 -40 0
-4 -16 -29 -33 0
-4 -16 -29 -43 0
-4 -16 -30 -34 0
-4 -16 -30 -46 0
-4 -16 -31 -35 0
-4 -16 -31 -49 0
-4 -16 -32 -36 0
-4 -16 -33 -37 0
-4 -16 -34 -38 0
-4 -16 -35 -39 0
-4 -16 -36 -40 0
-4 -16 -37 -41 0
-4 -16 -38 -42 0
-4 -16 -39 -43 0
-4 -16 -40 -44 0
-4 -16 -41 -45 0
-4 -16 -42 -46 0
-4 -16 -43 -47 0
-4 -16 -44 -48 0
-4 -16 -45 -49 0
-4 -16 -46 -50 0
-4 -17 -19 -22 0
-4 -17 -22 -23 0
-4 -17 -24 -25 0
-4 -17 -25 -28 0
-4 -17 -26 -31 0
-4 -17 -27 -34 0
-4 -17 -28 -37 0
-4 -17 -29 -40 0
-4 -17 -30 -43 0
-4 -17 -31 -46 0
-4 -17 -32 -49 0
-4 -18 -19 -23 0
-4 -18 -22 -24 0
-4 -18 -26 -28 0
-4 -18 -27 -31 0
-4 -18 -28 -34 0
-4 -18 -29 -37 0
-4 -18 -30 -40 0
-4 -18 -31 -43 0
-4 -18 -32 -46 0
-4 -18 -33 -49 0
-4 -19 -20 -25 0
-4 -19 -21 -26 0
-4 -19 -22 -25 0
-4 -19 -22 -27 0
-4 -19 -23 -28 0
-4 -19 -24 -29 0
-4 -19 -25 -26 0
-4 -19 -25 -30 0
-4 -19 -26 -31 0
-4 -19 -27 -28 0
-4 -19 -27 -32 0
-4 -19 -28 -31 0
-4 -19 -28 -33 0
-4 -19 -29 -34 0
-4 -19 -30 -35 0
-4 -19 -30 -37 0
-4 -19 -31 -36 0
-4 -19 -31 -40 0
-4 -19 -32 -37 0
-4 -19 -32 -43 0
-4 -19 -33 -38 0
-4 -19 -33 -46 0
-4 -19 -34 -39 0
-4 -19 -34 -49 0
-4 -19 -35 -40 0
-4 -19 -36 -41 0
-4 -19 -37 -42 0
-4 -19 -38 -43 0
-4 -19 -39 -44 0
-4 -19 -40 -45 0
-4 -19 -41 -46 0
-4 -19 -42 -47 0
-4 -19 -43 -48 0
-4 -19 -44 -49 0
-4 -19 -45 -50 0
-4 -20 -22 -26 0
-4 -20 -25 -27 0
-4 -20 -29 -31 0
-4 -20 -30 -34 0
-4 -20 -31 -37 0
-4 -20 -32 -40 0
-4 -20 -33 -43 0
-4 -20 -34 -46 0
-4 -20 -35 -49 0
-4 -21 -22 -27 0
-4 -21 -25 -28 0
-4 -21 -28 -29 0
-4 -21 -30 -31 0
-4 -21 -31 -34 0
-4 -21 -32 -37 0
-4 -21 -33 -40 0
-4 -21 -34 -43 0
-4 -21 -35 -46 0
-4 -21 -36 -49 0
-4 -22 -23 -29 0
-4 -22 -24 -30 0
-4 -22 -25 -29 0
-4 -22 -25 -31 0
-4 -22 -26 -32 0
-4 -22 -27 -33 0
-4 -22 -28 -30 0
-4 -22 -28 -34 0
-4 -22 -29 -35 0
-4 -22 -30 -36 0
-4 -22 -31 -37 0
-4 -22 -32 -34 0
-4 -22 -32 -38 0
-4 -22 -33 -37 0
-4 -22 -33 -39 0
-4 -22 -34 -40 0
-4 -22 -35 -41 0
-4 -22 -35 -43 0
-4 -22 -36 -42 0
-4 -22 -36 -46 0
-4 -22 -37 -43 0
-4 -22 -37 -49 0
-4 -22 -38 -44 0
-4 -22 -39 -45 0
-4 -22 -40 -46 0
-4 -22 -41 -47 0
-4 -22 -42 -48 0
-4 -22 -43 -49 0
-4 -22 -44 -50 0
-4 -23 -25 -30 0
-4 -23 -28 -31 0
-4 -23 -31 -32 0
-4 -23 -33 -34 0
-4 -23 -34 -37 0
-4 -23 -35 -40 0
-4 -23 -36 -43 0
-4 -23 -37 -46 0
-4 -23 -38 -49 0
-4 -24 -25 -31 0
-4 -24 -28 -32 0
-4 -24 -31 -33 0
-4 -24 -35 -37 0
-4 -24 -36 -40 0
-4 -24 -37 -43 0
-4 -24 -38 -46 0
-4 -24 -39 -49 0
-4 -25 -26 -33 0
-4 -25 -27 -34 0
-4 -25 -28 -33 0
-4 -25 -28 -35 0
-4 -25 -29 -36 0
-4 -25 -30 -37 0
-4 -25 -31 -34 0
-4 -25 -31 -38 0
-4 -25 -32 -39 0
-4 -25 -33 -40 0
-4 -25 -34 -35 0
-4 -25 -34 -41 0
-4 -25 -35 -42 0
-4 -25 -36 -37 0
-4 -25 -36 -43 0
-4 -25 -37 -40 0
-4 -25 -37 -44 0
-4 -25 -38 -43 0
-4 -25 -38 -45 0
-4 -25 -39 -46 0
-4 -25 -40 -47 0
-4 -25 -40 -49 0
-4 -25 -41 -48 0
-4 -25 -42 -49 0
-4 -25 -43 -50 0
-4 -26 -28 -34 0
-4 -26 -31 -35 0
-4 -26 -34 -36 0
-4 -26 -38 -40 0
-4 -26 -39 -43 0
-4 -26 -40 -46 0
-4 -26 -41 -49 0
-4 -27 -28 -35 0
-4 -27 -31 -36 0
-4 -27 -34 -37 0
-4 -27 -37 -38 0
-4 -27 -39 -40 0
-4 -27 -40 -43 0
-4 -27 -41 -46 0
-4 -27 -42 -49 0
-4 -28 -29 -37 0
-4 -28 -30 -38 0
-4 -28 -31 -37 0
-4 -28 -31 -39 0
-4 -28 -32 -40 0
-4 -28 -33 -41 0
-4 -28 -34 -38 0
-4 -28 -34 -42 0
-4 -28 -35 -43 0
-4 -28 -36 -44 0
-4 -28 -37 -39 0
-4 -28 -37 -45 0
-4 -28 -38 -46 0
-4 -28 -39 -47 0
-4 -28 -40 -48 0
-4 -28 -41 -43 0
-4 -28 -41 -49 0
-4 -28 -42 -46 0
-4 -28 -42 -50 0
-4 -28 -43 -49 0
-4 -29 -31 -38 0
-4 -29 -34 -39 0
-4 -29 -37 -40 0
-4 -29 -40 -41 0
-4 -29 -42 -43 0
-4 -29 -43 -46 0
-4 -29 -44 -49 0
-4 -30 -31 -39 0
-4 -30 -34 -40 0
-4 -30 -37 -41 0
-4 -30 -40 -42 0
-4 -30 -44 -46 0
-4 -30 -45 -49 0
-4 -31 -32 -41 0
-4 -31 -33 -42 0
-4 -31 -34 -41 0
-4 -31 -34 -43 0
-4 -31 -35 -44 0
-4 -31 -36 -45 0
-4 -31 -37 -42 0
-4 -31 -37 -46 0
-4 -31 -38 -47 0
-4 -31 -39 -48 0
-4 -31 -40 -43 0
-4 -31 -40 -49 0
-4 -31 -41 -50 0
-4 -31 -43 -44 0
-4 -31 -45 -46 0
-4 -31 -46 -49 0
-4 -32 -34 -42 0
-4 -32 -37 -43 0
-4 -32 -40 -44 0
-4 -32 -43 -45 0
-4 -32 -47 -49 0
-4 -33 -34 -43 0
-4 -33 -37 -44 0
-4 -33 -40 -45 0
-4 -33 -43 -46 0
-4 -33 -46 -47 0
-4 -33 -48 -49 0
-4 -34 -35 -45 0
-4 -34 -36 -46 0
-4 -34 -37 -45 0
-4 -34 -37 -47 0
-4 -34 -38 -48 0
-4 -34 -39 -49 0
-4 -34 -40 -46 0
-4 -34 -40 -50 0
-4 -34 -43 -47 0
-4 -34 -46 -48 0
-4 -35 -37 -46 0
-4 -35 -40 -47 0
-4 -35 -43 -48 0
-4 -35 -46 -49 0
-4 -35 -49 -50 0
-4 -36 -37 -47 0
-4 -36 -40 -48 0
-4 -36 -43 -49 0
-4 -36 -46 -50 0
-4 -37 -38 -49 0
-4 -37 -39 -50 0
-4 -37 -40 -49 0
-4 -37 -43 -50 0
-4 -38 -40 -50 0
-5 -6 -7 -8 0
-5 -6 -7 -10 0
-5 -6 -7 -12 0
-5 -6 -8 -11 0
-5 -6 -8 -15 0
-5 -6 -9 -12 0
-5 -6 -9 -14 0
-5 -6 -9 -18 0
-5 -6 -10 -13 0
-5 -6 -10 -17 0
-5 -6 -10 -21 0
-5 -6 -11 -14 0
-5 -6 -11 -20 0
-5 -6 -11 -24 0
-5 -6 -12 -15 0
-5 -6 -12 -23 0
-5 -6 -12 -27 0
-5 -6 -13 -16 0
-5 -6 -13 -26 0
-5 -6 -13 -30 0
-5 -6 -14 -17 0
-5 -6 -14 -29 0
-5 -6 -14 -33 0
-5 -6 -15 -18 0
-5 -6 -15 -32 0
-5 -6 -15 -36 0
-5 -6 -16 -19 0
-5 -6 -16 -35 0
-5 -6 -16 -39 0
-5 -6 -17 -20 0
-5 -6 -17 -38 0
-5 -6 -17 -42 0
-5 -6 -18 -21 0
-5 -6 -18 -41 0
-5 -6 -18 -45 0
-5 -6 -19 -22 0
-5 -6 -19 -44 0
-5 -6 -19 -48 0
-5 -6 -20 -23 0
-5 -6 -20 -47 0
-5 -6 -21 -24 0
-5 -6 -21 -50 0
-5 -6 -22 -25 0
-5 -6 -23 -26 0
-5 -6 -24 -27 0
-5 -6 -25 -28 0
-5 -6 -26 -29 0
-5 -6 -27 -30 0
-5 -6 -28 -31 0
-5 -6 -29 -32 0
-5 -6 -30 -33 0
-5 -6 -31 -34 0
-5 -6 -32 -35 0
-5 -6 -33 -36 0
-5 -6 -34 -37 0
-5 -6 -35 -38 0
-5 -6 -36 -39 0
-5 -6 -37 -40 0
-5 -6 -38 -41 0
-5 -6 -39 -42 0
-5 -6 -40 -43 0
-5 -6 -41 -44 0
-5 -6 -42 -45 0
-5 -6 -43 -46 0
-5 -6 -44 -47 0
-5 -6 -45 -48 0
-5 -6 -46 -49 0
-5 -6 -47 -50 0
-5 -7 -8 -14 0
-5 -7 -8 -16 0
-5 -7 -9 -11 0
-5 -7 -9 -15 0
-5 -7 -9 -19 0
-5 -7 -10 -14 0
-5 -7 -10 -16 0
-5 -7 -10 -22 0
-5 -7 -11 -17 0
-5 -7 -11 -25 0
-5 -7 -12 -18 0
-5 -7 -12 -20 0
-5 -7 -12 -28 0
-5 -7 -13 -19 0
-5 -7 -13 -23 0
-5 -7 -13 -31 0
-5 -7 -14 -20 0
-5 -7 -14 -26 0
-5 -7 -14 -34 0
-5 -7 -15 -21 0
-5 -7 -15 -29 0
-5 -7 -15 -37 0
-5 -7 -16 -22 0
-5 -7 -16 -32 0
-5 -7 -16 -40 0
-5 -7 -17 -23 0
-5 -7 -17 -35 0
-5 -7 -17 -43 0
-5 -7 -18 -24 0
-5 -7 -18 -38 0
-5 -7 -18 -46 0
-5 -7 -19 -25 0
-5 -7 -19 -41 0
-5 -7 -19 -49 0
-5 -7 -20 -26 0
-5 -7 -20 -44 0
-5 -7 -21 -27 0
-5 -7 -21 -47 0
-5 -7 -22 -28 0
-5 -7 -22 -50 0
-5 -7 -23 -29 0
-5 -7 -24 -30 0
-5 -7 -25 -31 0
-5 -7 -26 -32 0
-5 -7 -27 -33 0
-5 -7 -28 -34 0
-5 -7 -29 -35 0
-5 -7 -30 -36 0
-5 -7 -31 -37 0
-5 -7 -32 -38 0
-5 -7 -33 -39 0
-5 -7 -34 -40 0
-5 -7 -35 -41 0
-5 -7 -36 -42 0
-5 -7 -37 -43 0
-5 -7 -38 -44 0
-5 -7 -39 -45 0
-5 -7 -40 -46 0
-5 -7 -41 -47 0
-5 -7 -42 -48 0
-5 -7 -43 -49 0
-5 -7 -44 -50 0
-5 -8 -9 -10 0
-5 -8 -9 -18 0
-5 -8 -9 -20 0
-5 -8 -10 -11 0
-5 -8 -10 -19 0
-5 -8 -10 -23 0
-5 -8 -11 -12 0
-5 -8 -11 -14 0
-5 -8 -11 -20 0
-5 -8 -11 -26 0
-5 -8 -12 -13 0
-5 -8 -12 -17 0
-5 -8 -12 -21 0
-5 -8 -12 -29 0
-5 -8 -13 -14 0
-5 -8 -13 -20 0
-5 -8 -13 -22 0
-5 -8 -13 -32 0
-5 -8 -14 -15 0
-5 -8 -14 -23 0
-5 -8 -14 -35 0
-5 -8 -15 -16 0
-5 -8 -15 -24 0
-5 -8 -15 -26 0
-5 -8 -15 -38 0
-5 -8 -16 -17 0
-5 -8 -16 -25 0
-5 -8 -16 -29 0
-5 -8 -16 -41 0
-5 -8 -17 -18 0
-5 -8 -17 -26 0
-5 -8 -17 -32 0
-5 -8 -17 -44 0
-5 -8 -18 -19 0
-5 -8 -18 -27 0
-5 -8 -18 -35 0
-5 -8 -18 -47 0
-5 -8 -19 -20 0
-5 -8 -19 -28 0
-5 -8 -19 -38 0
-5 -8 -19 -50 0
-5 -8 -20 -21 0
-5 -8 -20 -29 0
-5 -8 -20 -41 0
-5 -8 -21 -22 0
-5 -8 -21 -30 0
-5 -8 -21 -44 0
-5 -8 -22 -23 0
-5 -8 -22 -31 0
-5 -8 -22 -47 0
-5 -8 -23 -24 0
-5 -8 -23 -32 0
-5 -8 -23 -50 0
-5 -8 -24 -25 0
-5 -8 -24 -33 0
-5 -8 -25 -26 0
-5 -8 -25 -34 0
-5 -8 -26 -27 0
-5 -8 -26 -35 0
-5 -8 -27 -28 0
-5 -8 -27 -36 0
-5 -8 -28 -29 0
-5 -8 -28 -37 0
-5 -8 -29 -30 0
-5 -8 -29 -38 0
-5 -8 -30 -31 0
-5 -8 -30 -39 0
-5 -8 -31 -32 0
-5 -8 -31 -40 0
-5 -8 -32 -33 0
-5 -8 -32 -41 0
-5 -8 -33 -34 0
-5 -8 -33 -42 0
-5 -8 -34 -35 0
-5 -8 -34 -43 0
-5 -8 -35 -36 0
-5 -8 -35 -44 0
-5 -8 -36 -37 0
-5 -8 -36 -45 0
-5 -8 -37 -38 0
-5 -8 -37 -46 0
-5 -8 -38 -39 0
-5 -8 -38 -47 0
-5 -8 -39 -40 0
-5 -8 -39 -48 0
-5 -8 -40 -41 0
-5 -8 -40 -49 0
-5 -8 -41 -42 0
-5 -8 -41 -50 0
-5 -8 -42 -43 0
-5 -8 -43 -44 0
-5 -8 -44 -45 0
-5 -8 -45 -46 0
-5 -8 -46 -47 0
-5 -8 -47 -48 0
-5 -8 -48 -49 0
-5 -8 -49 -50 0
-5 -9 -10 -22 0
-5 -9 -10 -24 0
-5 -9 -11 -23 0
-5 -9 -11 -27 0
-5 -9 -12 -14 0
-5 -9 -12 -24 0
-5 -9 -12 -30 0
-5 -9 -13 -17 0
-5 -9 -13 -25 0
-5 -9 -13 -33 0
-5 -9 -14 -20 0
-5 -9 -14 -26 0
-5 -9 -14 -36 0
-5 -9 -15 -23 0
-5 -9 -15 -27 0
-5 -9 -15 -39 0
-5 -9 -16 -26 0
-5 -9 -16 -28 0
-5 -9 -16 -42 0
-5 -9 -17 -29 0
-5 -9 -17 -45 0
-5 -9 -18 -30 0
-5 -9 -18 -32 0
-5 -9 -18 -48 0
-5 -9 -19 -31 0
-5 -9 -19 -35 0
-5 -9 -20 -32 0
-5 -9 -20 -38 0
-5 -9 -21 -33 0
-5 -9 -21 -41 0
-5 -9 -22 -34 0
-5 -9 -22 -44 0
-5 -9 -23 -35 0
-5 -9 -23 -47 0
-5 -9 -24 -36 0
-5 -9 -24 -50 0
-5 -9 -25 -37 0
-5 -9 -26 -38 0
-5 -9 -27 -39 0
-5 -9 -28 -40 0
-5 -9 -29 -41 0
-5 -9 -30 -42 0
-5 -9 -31 -43 0
-5 -9 -32 -44 0
-5 -9 -33 -45 0
-5 -9 -34 -46 0
-5 -9 -35 -47 0
-5 -9 -36 -48 0
-5 -9 -37 -49 0
-5 -9 -38 -50 0
-5 -10 -11 -12 0
-5 -10 -11 -26 0
-5 -10 -11 -28 0
-5 -10 -12 -27 0
-5 -10 -12 -31 0
-5 -10 -13 -14 0
-5 -10 -13 -28 0
-5 -10 -13 -34 0
-5 -10 -14 -17 0
-5 -10 -14 -29 0
-5 -10 -14 -37 0
-5 -10 -15 -20 0
-5 -10 -15 -30 0
-5 -10 -15 -40 0
-5 -10 -16 -23 0
-5 -10 -16 -31 0
-5 -10 -16 -43 0
-5 -10 -17 -26 0
-5 -10 -17 -32 0
-5 -10 -17 -46 0
-5 -10 -18 -29 0
-5 -10 -18 -33 0
-5 -10 -18 -49 0
-5 -10 -19 -32 0
-5 -10 -19 -34 0
-5 -10 -20 -35 0
-5 -10 -21 -36 0
-5 -10 -21 -38 0
-5 -10 -22 -37 0
-5 -10 -22 -41 0
-5 -10 -23 -38 0
-5 -10 -23 -44 0
-5 -10 -24 -39 0
-5 -10 -24 -47 0
-5 -10 -25 -40 0
-5 -10 -25 -50 0
-5 -10 -26 -41 0
-5 -10 -27 -42 0
-5 -10 -28 -43 0
-5 -10 -29 -44 0
-5 -10 -30 -45 0
-5 -10 -31 -46 0
-5 -10 -32 -47 0
-5 -10 -33 -48 0
-5 -10 -34 -49 0
-5 -10 -35 -50 0
-5 -11 -12 -14 0
-5 -11 -12 -30 0
-5 -11 -12 -32 0
-5 -11 -13 -15 0
-5 -11 -13 -31 0
-5 -11 -13 -35 0
-5 -11 -14 -16 0
-5 -11 -14 -32 0
-5 -11 -14 -38 0
-5 -11 -15 -17 0
-5 -11 -15 -33 0
-5 -11 -15 -41 0
-5 -11 -16 -18 0
-5 -11 -16 -20 0
-5 -11 -16 -34 0
-5 -11 -16 -44 0
-5 -11 -17 -19 0
-5 -11 -17 -23 0
-5 -11 -17 -35 0
-5 -11 -17 -47 0
-5 -11 -18 -20 0
-5 -11 -18 -26 0
-5 -11 -18 -36 0
-5 -11 -18 -50 0
-5 -11 -19 -21 0
-5 -11 -19 -29 0
-5 -11 -19 -37 0
-5 -11 -20 -22 0
-5 -11 -20 -32 0
-5 -11 -20 -38 0
-5 -11 -21 -23 0
-5 -11 -21 -35 0
-5 -11 -21 -39 0
-5 -11 -22 -24 0
-5 -11 -22 -38 0
-5 -11 -22 -40 0
-5 -11 -23 -25 0
-5 -11 -23 -41 0
-5 -11 -24 -26 0
-5 -11 -24 -42 0
-5 -11 -24 -44 0
-5 -11 -25 -27 0
-5 -11 -25 -43 0
-5 -11 -25 -47 0
-5 -11 -26 -28 0
-5 -11 -26 -44 0
-5 -11 -26 -50 0
-5 -11 -27 -29 0
-5 -11 -27 -45 0
-5 -11 -28 -30 0
-5 -11 -28 -46 0
-5 -11 -29 -31 0
-5 -11 -29 -47 0
-5 -11 -30 -32 0
-5 -11 -30 -48 0
-5 -11 -31 -33 0
-5 -11 -31 -49 0
-5 -11 -32 -34 0
-5 -11 -32 -50 0
-5 -11 -33 -35 0
-5 -11 -34 -36 0
-5 -11 -35 -37 0
-5 -11 -36 -38 0
-5 -11 -37 -39 0
-5 -11 -38 -40 0
-5 -11 -39 -41 0
-5 -11 -40 -42 0
-5 -11 -41 -43 0
-5 -11 -42 -44 0
-5 -11 -43 -45 0
-5 -11 -44 -46 0
-5 -11 -45 -47 0
-5 -11 -46 -48 0
-5 -11 -47 -49 0
-5 -11 -48 -50 0
-5 -12 -13 -34 0
-5 -12 -13 -36 0
-5 -12 -14 -15 0
-5 -12 -14 -35 0
-5 -12 -14 -39 0
-5 -12 -15 -36 0
-5 -12 -15 -42 0
-5 -12 -16 -17 0
-5 -12 -16 -37 0
-5 -12 -16 -45 0
-5 -12 -17 -20 0
-5 -12 -17 -38 0
-5 -12 -17 -48 0
-5 -12 -18 -23 0
-5 -12 -18 -39 0
-5 -12 -19 -26 0
-5 -12 -19 -40 0
-5 -12 -20 -29 0
-5 -12 -20 -41 0
-5 -12 -21 -32 0
-5 -12 -21 -42 0
-5 -12 -22 -35 0
-5 -12 -22 -43 0
-5 -12 -23 -38 0
-5 -12 -23 -44 0
-5 -12 -24 -41 0
-5 -12 -24 -45 0
-5 -12 -25 -44 0
-5 -12 -25 -46 0
-5 -12 -26 -47 0
-5 -12 -27 -48 0
-5 -12 -27 -50 0
-5 -12 -28 -49 0
-5 -12 -29 -50 0
-5 -13 -14 -16 0
-5 -13 -14 -38 0
-5 -13 -14 -40 0
-5 -13 -15 -39 0
-5 -13 -15 -43 0
-5 -13 -16 -40 0
-5 -13 -16 -46 0
-5 -13 -17 -41 0
-5 -13 -17 -49 0
-5 -13 -18 -20 0
-5 -13 -18 -42 0
-5 -13 -19 -23 0
-5 -13 -19 -43 0
-5 -13 -20 -26 0
-5 -13 -20 -44 0
-5 -13 -21 -29 0
-5 -13 -21 -45 0
-5 -13 -22 -32 0
-5 -13 -22 -46 0
-5 -13 -23 -35 0
-5 -13 -23 -47 0
-5 -13 -24 -38 0
-5 -13 -24 -48 0
-5 -13 -25 -41 0
-5 -13 -25 -49 0
-5 -13 -26 -44 0
-5 -13 -26 -50 0
-5 -13 -27 -47 0
-5 -13 -28 -50 0
-5 -14 -15 -18 0
-5 -14 -15 -42 0
-5 -14 -15 -44 0
-5 -14 -16 -19 0
-5 -14 -16 -43 0
-5 -14 -16 -47 0
-5 -14 -17 -18 0
-5 -14 -17 -20 0
-5 -14 -17 -44 0
-5 -14 -17 -50 0
-5 -14 -18 -21 0
-5 -14 -18 -45 0
-5 -14 -19 -20 0
-5 -14 -19 -22 0
-5 -14 -19 -46 0
-5 -14 -20 -23 0
-5 -14 -20 -47 0
-5 -14 -21 -24 0
-5 -14 -21 -26 0
-5 -14 -21 -48 0
-5 -14 -22 -25 0
-5 -14 -22 -29 0
-5 -14 -22 -49 0
-5 -14 -23 -26 0
-5 -14 -23 -32 0
-5 -14 -23 -50 0
-5 -14 -24 -27 0
-5 -14 -24 -35 0
-5 -14 -25 -28 0
-5 -14 -25 -38 0
-5 -14 -26 -29 0
-5 -14 -26 -41 0
-5 -14 -27 -30 0
-5 -14 -27 -44 0
-5 -14 -28 -31 0
-5 -14 -28 -47 0
-5 -14 -29 -32 0
-5 -14 -29 -50 0
-5 -14 -30 -33 0
-5 -14 -31 -34 0
-5 -14 -32 -35 0
-5 -14 -33 -36 0
-5 -14 -34 -37 0
-5 -14 -35 -38 0
-5 -14 -36 -39 0
-5 -14 -37 -40 0
-5 -14 -38 -41 0
-5 -14 -39 -42 0
-5 -14 -40 -43 0
-5 -14 -41 -44 0
-5 -14 -42 -45 0
-5 -14 -43 -46 0
-5 -14 -44 -47 0
-5 -14 -45 -48 0
-5 -14 -46 -49 0
-5 -14 -47 -50 0
-5 -15 -16 -46 0
-5 -15 -16 -48 0
-5 -15 -17 -19 0
-5 -15 -17 -47 0
-5 -15 -18 -48 0
-5 -15 -19 -49 0
-5 -15 -20 -50 0
-5 -15 -21 -23 0
-5 -15 -22 -26 0
-5 -15 -23 -29 0
-5 -15 -24 -32 0
-5 -15 -25 -35 0
-5 -15 -26 -38 0
-5 -15 -27 -41 0
-5 -15 -28 -44 0
-5 -15 -29 -47 0
-5 -15 -30 -50 0
-5 -16 -17 -20 0
-5 -16 -17 -50 0
-5 -16 -20 -21 0
-5 -16 -22 -23 0
-5 -16 -23 -26 0
-5 -16 -24 -29 0
-5 -16 -25 -32 0
-5 -16 -26 -35 0
-5 -16 -27 -38 0
-5 -16 -28 -41 0
-5 -16 -29 -44 0
-5 -16 -30 -47 0
-5 -16 -31 -50 0
-5 -17 -18 -22 0
-5 -17 -19 -23 0
-5 -17 -20 -22 0
-5 -17 -20 -24 0
-5 -17 -21 -25 0
-5 -17 -22 -26 0
-5 -17 -23 -27 0
-5 -17 -24 -26 0
-5 -17 -24 -28 0
-5 -17 -25 -29 0
-5 -17 -26 -30 0
-5 -17 -26 -32 0
-5 -17 -27 -31 0
-5 -17 -27 -35 0
-5 -17 -28 -32 0
-5 -17 -28 -38 0
-5 -17 -29 -33 0
-5 -17 -29 -41 0
-5 -17 -30 -34 0
-5 -17 -30 -44 0
-5 -17 -31 -35 0
-5 -17 -31 -47 0
-5 -17 -32 -36 0
-5 -17 -32 -50 0
-5 -17 -33 -37 0
-5 -17 -34 -38 0
-5 -17 -35 -39 0
-5 -17 -36 -40 0
-5 -17 -37 -41 0
-5 -17 -38 -42 0
-5 -17 -39 -43 0
-5 -17 -40 -44 0
-5 -17 -41 -45 0
-5 -17 -42 -46 0
-5 -17 -43 -47 0
-5 -17 -44 -48 0
-5 -17 -45 -49 0
-5 -17 -46 -50 0
-5 -18 -20 -23 0
-5 -18 -23 -24 0
-5 -18 -25 -26 0
-5 -18 -26 -29 0
-5 -18 -27 -32 0
-5 -18 -28 -35 0
-5 -18 -29 -38 0
-5 -18 -30 -41 0
-5 -18 -31 -44 0
-5 -18 -32 -47 0
-5 -18 -33 -50 0
-5 -19 -20 -24 0
-5 -19 -23 -25 0
-5 -19 -27 -29 0
-5 -19 -28 -32 0
-5 -19 -29 -35 0
-5 -19 -30 -38 0
-5 -19 -31 -41 0
-5 -19 -32 -44 0
-5 -19 -33 -47 0
-5 -19 -34 -50 0
-5 -20 -21 -26 0
-5 -20 -22 -27 0
-5 -20 -23 -26 0
-5 -20 -23 -28 0
-5 -20 -24 -29 0
-5 -20 -25 -30 0
-5 -20 -26 -27 0
-5 -20 -26 -31 0
-5 -20 -27 -32 0
-5 -20 -28 -29 0
-5 -20 -28 -33 0
-5 -20 -29 -32 0
-5 -20 -29 -34 0
-5 -20 -30 -35 0
-5 -20 -31 -36 0
-5 -20 -31 -38 0
-5 -20 -32 -37 0
-5 -20 -32 -41 0
-5 -20 -33 -38 0
-5 -20 -33 -44 0
-5 -20 -34 -39 0
-5 -20 -34 -47 0
-5 -20 -35 -40 0
-5 -20 -35 -50 0
-5 -20 -36 -41 0
-5 -20 -37 -42 0
-5 -20 -38 -43 0
-5 -20 -39 -44 0
-5 -20 -40 -45 0
-5 -20 -41 -46 0
-5 -20 -42 -47 0
-5 -20 -43 -48 0
-5 -20 -44 -49 0
-5 -20 -45 -50 0
-5 -21 -23 -27 0
-5 -21 -26 -28 0
-5 -21 -30 -32 0
-5 -21 -31 -35 0
-5 -21 -32 -38 0
-5 -21 -33 -41 0
-5 -21 -34 -44 0
-5 -21 -35 -47 0
-5 -21 -36 -50 0
-5 -22 -23 -28 0
-5 -22 -26 -29 0
-5 -22 -29 -30 0
-5 -22 -31 -32 0
-5 -22 -32 -35 0
-5 -22 -33 -38 0
-5 -22 -34 -41 0
-5 -22 -35 -44 0
-5 -22 -36 -47 0
-5 -22 -37 -50 0
-5 -23 -24 -30 0
-5 -23 -25 -31 0
-5 -23 -26 -30 0
-5 -23 -26 -32 0
-5 -23 -27 -33 0
-5 -23 -28 -34 0
-5 -23 -29 -31 0
-5 -23 -29 -35 0
-5 -23 -30 -36 0
-5 -23 -31 -37 0
-5 -23 -32 -38 0
-5 -23 -33 -35 0
-5 -23 -33 -39 0
-5 -23 -34 -38 0
-5 -23 -34 -40 0
-5 -23 -35 -41 0
-5 -23 -36 -42 0
-5 -23 -36 -44 0
-5 -23 -37 -43 0
-5 -23 -37 -47 0
-5 -23 -38 -44 0
-5 -23 -38 -50 0
-5 -23 -39 -45 0
-5 -23 -40 -46 0
-5 -23 -41 -47 0
-5 -23 -42 -48 0
-5 -23 -43 -49 0
-5 -23 -44 -50 0
-5 -24 -26 -31 0
-5 -24 -29 -32 0
-5 -24 -32 -33 0
-5 -24 -34 -35 0
-5 -24 -35 -38 0
-5 -24 -36 -41 0
-5 -24 -37 -44 0
-5 -24 -38 -47 0
-5 -24 -39 -50 0
-5 -25 -26 -32 0
-5 -25 -29 -33 0
-5 -25 -32 -34 0
-5 -25 -36 -38 0
-5 -25 -37 -41 0
-5 -25 -38 -44 0
-5 -25 -39 -47 0
-5 -25 -40 -50 0
-5 -26 -27 -34 0
-5 -26 -28 -35 0
-5 -26 -29 -34 0
-5 -26 -29 -36 0
-5 -26 -30 -37 0
-5 -26 -31 -38 0
-5 -26 -32 -35 0
-5 -26 -32 -39 0
-5 -26 -33 -40 0
-5 -26 -34 -41 0
-5 -26 -35 -36 0
-5 -26 -35 -42 0
-5 -26 -36 -43 0
-5 -26 -37 -38 0
-5 -26 -37 -44 0
-5 -26 -38 -41 0
-5 -26 -38 -45 0
-5 -26 -39 -44 0
-5 -26 -39 -46 0
-5 -26 -40 -47 0
-5 -26 -41 -48 0
-5 -26 -41 -50 0
-5 -26 -42 -49 0
-5 -26 -43 -50 0
-5 -27 -29 -35 0
-5 -27 -32 -36 0
-5 -27 -35 -37 0
-5 -27 -39 -41 0
-5 -27 -40 -44 0
-5 -27 -41 -47 0
-5 -27 -42 -50 0
-5 -28 -29 -36 0
-5 -28 -32 -37 0
-5 -28 -35 -38 0
-5 -28 -38 -39 0
-5 -28 -40 -41 0
-5 -28 -41 -44 0
-5 -28 -42 -47 0
-5 -28 -43 -50 0
-5 -29 -30 -38 0
-5 -29 -31 -39 0
-5 -29 -32 -38 0
-5 -29 -32 -40 0
-5 -29 -33 -41 0
-5 -29 -34 -42 0
-5 -29 -35 -39 0
-5 -29 -35 -43 0
-5 -29 -36 -44 0
-5 -29 -37 -45 0
-5 -29 -38 -40 0
-5 -29 -38 -46 0
-5 -29 -39 -47 0
-5 -29 -40 -48 0
-5 -29 -41 -49 0
-5 -29 -42 -44 0
-5 -29 -42 -50 0
-5 -29 -43 -47 0
-5 -29 -44 -50 0
-5 -30 -32 -39 0
-5 -30 -35 -40 0
-5 -30 -38 -41 0
-5 -30 -41 -42 0
-5 -30 -43 -44 0
-5 -30 -44 -47 0
-5 -30 -45 -50 0
-5 -31 -32 -40 0
-5 -31 -35 -41 0
-5 -31 -38 -42 0
-5 -31 -41 -43 0
-5 -31 -45 -47 0
-5 -31 -46 -50 0
-5 -32 -33 -42 0
-5 -32 -34 -43 0
-5 -32 -35 -42 0
-5 -32 -35 -44 0
-5 -32 -36 -45 0
-5 -32 -37 -46 0
-5 -32 -38 -43 0
-5 -32 -38 -47 0
-5 -32 -39 -48 0
-5 -32 -40 -49 0
-5 -32 -41 -44 0
-5 -32 -41 -50 0
-5 -32 -44 -45 0
-5 -32 -46 -47 0
-5 -32 -47 -50 0
-5 -33 -35 -43 0
-5 -33 -38 -44 0
-5 -33 -41 -45 0
-5 -33 -44 -46 0
-5 -33 -48 -50 0
-5 -34 -35 -44 0
-5 -34 -38 -45 0
-5 -34 -41 -46 0
-5 -34 -44 -47 0
-5 -34 -47 -48 0
-5 -34 -49 -50 0
-5 -35 -36 -46 0
-5 -35 -37 -47 0
-5 -35 -38 -46 0
-5 -35 -38 -48 0
-5 -35 -39 -49 0
-5 -35 -40 -50 0
-5 -35 -41 -47 0
-5 -35 -44 -48 0
-5 -35 -47 -49 0
-5 -36 -38 -47 0
-5 -36 -41 -48 0
-5 -36 -44 -49 0
-5 -36 -47 -50 0
-5 -37 -38 -48 0
-5 -37 -41 -49 0
-5 -37 -44 -50 0
-5 -38 -39 -50 0
-5 -38 -41 -50 0
-6 -7 -8 -9 0
-6 -7 -8 -11 0
-6 -7 -8 -13 0
-6 -7 -9 -12 0
-6 -7 -9 -16 0
-6 -7 -10 -13 0
-6 -7 -10 -15 0
-6 -7 -10 -19 0
-6 -7 -11 -14 0
-6 -7 -11 -18 0
-6 -7 -11 -22 0
-6 -7 -12 -15 0
-6 -7 -12 -21 0
-6 -7 -12 -25 0
-6 -7 -13 -16 0
-6 -7 -13 -24 0
-6 -7 -13 -28 0
-6 -7 -14 -17 0
-6 -7 -14 -27 0
-6 -7 -14 -31 0
-6 -7 -15 -18 0
-6 -7 -15 -30 0
-6 -7 -15 -34 0
-6 -7 -16 -19 0
-6 -7 -16 -33 0
-6 -7 -16 -37 0
-6 -7 -17 -20 0
-6 -7 -17 -36 0
-6 -7 -17 -40 0
-6 -7 -18 -21 0
-6 -7 -18 -39 0
-6 -7 -18 -43 0
-6 -7 -19 -22 0
-6 -7 -19 -42 0
-6 -7 -19 -46 0
-6 -7 -20 -23 0
-6 -7 -20 -45 0
-6 -7 -20 -49 0
-6 -7 -21 -24 0
-6 -7 -21 -48 0
-6 -7 -22 -25 0
-6 -7 -23 -26 0
-6 -7 -24 -27 0
-6 -7 -25 -28 0
-6 -7 -26 -29 0
-6 -7 -27 -30 0
-6 -7 -28 -31 0
-6 -7 -29 -32 0
-6 -7 -30 -33 0
-6 -7 -31 -34 0
-6 -7 -32 -35 0
-6 -7 -33 -36 0
-6 -7 -34 -37 0
-6 -7 -35 -38 0
-6 -7 -36 -39 0
-6 -7 -37 -40 0
-6 -7 -38 -41 0
-6 -7 -39 -42 0
-6 -7 -40 -43 0
-6 -7 -41 -44 0
-6 -7 -42 -45 0
-6 -7 -43 -46 0
-6 -7 -44 -47 0
-6 -7 -45 -48 0
-6 -7 -46 -49 0
-6 -7 -47 -50 0
-6 -8 -9 -15 0
-6 -8 -9 -17 0
-6 -8 -10 -12 0
-6 -8 -10 -16 0
-6 -8 -10 -20 0
-6 -8 -11 -15 0
-6 -8 -11 -17 0
-6 -8 -11 -23 0
-6 -8 -12 -18 0
-6 -8 -12 -26 0
-6 -8 -13 -19 0
-6 -8 -13 -21 0
-6 -8 -13 -29 0
-6 -8 -14 -20 0
-6 -8 -14 -24 0
-6 -8 -14 -32 0
-6 -8 -15 -21 0
-6 -8 -15 -27 0
-6 -8 -15 -35 0
-6 -8 -16 -22 0
-6 -8 -16 -30 0
-6 -8 -16 -38 0
-6 -8 -17 -23 0
-6 -8 -17 -33 0
-6 -8 -17 -41 0
-6 -8 -18 -24 0
-6 -8 -18 -36 0
-6 -8 -18 -44 0
-6 -8 -19 -25 0
-6 -8 -19 -39 0
-6 -8 -19 -47 0
-6 -8 -20 -26 0
-6 -8 -20 -42 0
-6 -8 -20 -50 0
-6 -8 -21 -27 0
-6 -8 -21 -45 0
-6 -8 -22 -28 0
-6 -8 -22 -48 0
-6 -8 -23 -29 0
-6 -8 -24 -30 0
-6 -8 -25 -31 0
-6 -8 -26 -32 0
-6 -8 -27 -33 0
-6 -8 -28 -34 0
-6 -8 -29 -35 0
-6 -8 -30 -36 0
-6 -8 -31 -37 0
-6 -8 -32 -38 0
-6 -8 -33 -39 0
-6 -8 -34 -40 0
-6 -8 -35 -41 0
-6 -8 -36 -42 0
-6 -8 -37 -43 0
-6 -8 -38 -44 0
-6 -8 -39 -45 0
-6 -8 -40 -46 0
-6 -8 -41 -47 0
-6 -8 -42 -48 0
-6 -8 -43 -49 0
-6 -8 -44 -50 0
-6 -9 -10 -11 0
-6 -9 -10 -19 0
-6 -9 -10 -21 0
-6 -9 -11 -12 0
-6 -9 -11 -20 0
-6 -9 -11 -24 0
-6 -9 -12 -13 0
-6 -9 -12 -15 0
-6 -9 -12 -21 0
-6 -9 -12 -27 0
-6 -9 -13 -14 0
-6 -9 -13 -18 0
-6 -9 -13 -22 0
-6 -9 -13 -30 0
-6 -9 -14 -15 0
-6 -9 -14 -21 0
-6 -9 -14 -23 0
-6 -9 -14 -33 0
-6 -9 -15 -16 0
-6 -9 -15 -24 0
-6 -9 -15 -36 0
-6 -9 -16 -17 0
-6 -9 -16 -25 0
-6 -9 -16 -27 0
-6 -9 -16 -39 0
-6 -9 -17 -18 0
-6 -9 -17 -26 0
-6 -9 -17 -30 0
-6 -9 -17 -42 0
-6 -9 -18 -19 0
-6 -9 -18 -27 0
-6 -9 -18 -33 0
-6 -9 -18 -45 0
-6 -9 -19 -20 0
-6 -9 -19 -28 0
-6 -9 -19 -36 0
-6 -9 -19 -48 0
-6 -9 -20 -21 0
-6 -9 -20 -29 0
-6 -9 -20 -39 0
-6 -9 -21 -22 0
-6 -9 -21 -30 0
-6 -9 -21 -42 0
-6 -9 -22 -23 0
-6 -9 -22 -31 0
-6 -9 -22 -45 0
-6 -9 -23 -24 0
-6 -9 -23 -32 0
-6 -9 -23 -48 0
-6 -9 -24 -25 0
-6 -9 -24 -33 0
-6 -9 -25 -26 0
-6 -9 -25 -34 0
-6 -9 -26 -27 0
-6 -9 -26 -35 0
-6 -9 -27 -28 0
-6 -9 -27 -36 0
-6 -9 -28 -29 0
-6 -9 -28 -37 0
-6 -9 -29 -30 0
-6 -9 -29 -38 0
-6 -9 -30 -31 0
-6 -9 -30 -39 0
-6 -9 -31 -32 0
-6 -9 -31 -40 0
-6 -9 -32 -33 0
-6 -9 -32 -41 0
-6 -9 -33 -34 0
-6 -9 -33 -42 0
-6 -9 -34 -35 0
-6 -9 -34 -43 0
-6 -9 -35 -36 0
-6 -9 -35 -44 0
-6 -9 -36 -37 0
-6 -9 -36 -45 0
-6 -9 -37 -38 0
-6 -9 -37 -46 0
-6 -9 -38 -39 0
-6 -9 -38 -47 0
-6 -9 -39 -40 0
-6 -9 -39 -48 0
-6 -9 -40 -41 0
-6 -9 -40 -49 0
-6 -9 -41 -42 0
-6 -9 -41 -50 0
-6 -9 -42 -43 0
-6 -9 -43 -44 0
-6 -9 -44 -45 0
-6 -9 -45 -46 0
-6 -9 -46 -47 0
-6 -9 -47 -48 0
-6 -9 -48 -49 0
-6 -9 -49 -50 0
-6 -10 -11 -23 0
-6 -10 -11 -25 0
-6 -10 -12 -24 0
-6 -10 -12 -28 0
-6 -10 -13 -15 0
-6 -10 -13 -25 0
-6 -10 -13 -31 0
-6 -10 -14 -18 0
-6 -10 -14 -26 0
-6 -10 -14 -34 0
-6 -10 -15 -21 0
-6 -10 -15 -27 0
-6 -10 -15 -37 0
-6 -10 -16 -24 0
-6 -10 -16 -28 0
-6 -10 -16 -40 0
-6 -10 -17 -27 0
-6 -10 -17 -29 0
-6 -10 -17 -43 0
-6 -10 -18 -30 0
-6 -10 -18 -46 0
-6 -10 -19 -31 0
-6 -10 -19 -33 0
-6 -10 -19 -49 0
-6 -10 -20 -32 0
-6 -10 -20 -36 0
-6 -10 -21 -33 0
-6 -10 -21 -39 0
-6 -10 -22 -34 0
-6 -10 -22 -42 0
-6 -10 -23 -35 0
-6 -10 -23 -45 0
-6 -10 -24 -36 0
-6 -10 -24 -48 0
-6 -10 -25 -37 0
-6 -10 -26 -38 0
-6 -10 -27 -39 0
-6 -10 -28 -40 0
-6 -10 -29 -41 0
-6 -10 -30 -42 0
-6 -10 -31 -43 0
-6 -10 -32 -44 0
-6 -10 -33 -45 0
-6 -10 -34 -46 0
-6 -10 -35 -47 0
-6 -10 -36 -48 0
-6 -10 -37 -49 0
-6 -10 -38 -50 0
-6 -11 -12 -13 0
-6 -11 -12 -27 0
-6 -11 -12 -29 0
-6 -11 -13 -28 0
-6 -11 -13 -32 0
-6 -11 -14 -15 0
-6 -11 -14 -29 0
-6 -11 -14 -35 0
-6 -11 -15 -18 0
-6 -11 -15 -30 0
-6 -11 -15 -38 0
-6 -11 -16 -21 0
-6 -11 -16 -31 0
-6 -11 -16 -41 0
-6 -11 -17 -24 0
-6 -11 -17 -32 0
-6 -11 -17 -44 0
-6 -11 -18 -27 0
-6 -11 -18 -33 0
-6 -11 -18 -47 0
-6 -11 -19 -30 0
-6 -11 -19 -34 0
-6 -11 -19 -50 0
-6 -11 -20 -33 0
-6 -11 -20 -35 0
-6 -11 -21 -36 0
-6 -11 -22 -37 0
-6 -11 -22 -39 0
-6 -11 -23 -38 0
-6 -11 -23 -42 0
-6 -11 -24 -39 0
-6 -11 -24 -45 0
-6 -11 -25 -40 0
-6 -11 -25 -48 0
-6 -11 -26 -41 0
-6 -11 -27 -42 0
-6 -11 -28 -43 0
-6 -11 -29 -44 0
-6 -11 -30 -45 0
-6 -11 -31 -46 0
-6 -11 -32 -47 0
-6 -11 -33 -48 0
-6 -11 -34 -49 0
-6 -11 -35 -50 0
-6 -12 -13 -15 0
-6 -12 -13 -31 0
-6 -12 -13 -33 0
-6 -12 -14 -16 0
-6 -12 -14 -32 0
-6 -12 -14 -36 0
-6 -12 -15 -17 0
-6 -12 -15 -33 0
-6 -12 -15 -39 0
-6 -12 -16 -18 0
-6 -12 -16 -34 0
-6 -12 -16 -42 0
-6 -12 -17 -19 0
-6 -12 -17 -21 0
-6 -12 -17 -35 0
-6 -12 -17 -45 0
-6 -12 -18 -20 0
-6 -12 -18 -24 0
-6 -12 -18 -36 0
-6 -12 -18 -48 0
-6 -12 -19 -21 0
-6 -12 -19 -27 0
-6 -12 -19 -37 0
-6 -12 -20 -22 0
-6 -12 -20 -30 0
-6 -12 -20 -38 0
-6 -12 -21 -23 0
-6 -12 -21 -33 0
-6 -12 -21 -39 0
-6 -12 -22 -24 0
-6 -12 -22 -36 0
-6 -12 -22 -40 0
-6 -12 -23 -25 0
-6 -12 -23 -39 0
-6 -12 -23 -41 0
-6 -12 -24 -26 0
-6 -12 -24 -42 0
-6 -12 -25 -27 0
-6 -12 -25 -43 0
-6 -12 -25 -45 0
-6 -12 -26 -28 0
-6 -12 -26 -44 0
-6 -12 -26 -48 0
-6 -12 -27 -29 0
-6 -12 -27 -45 0
-6 -12 -28 -30 0
-6 -12 -28 -46 0
-6 -12 -29 -31 0
-6 -12 -29 -47 0
-6 -12 -30 -32 0
-6 -12 -30 -48 0
-6 -12 -31 -33 0
-6 -12 -31 -49 0
-6 -12 -32 -34 0
-6 -12 -32 -50 0
-6 -12 -33 -35 0
-6 -12 -34 -36 0
-6 -12 -35 -37 0
-6 -12 -36 -38 0
-6 -12 -37 -39 0
-6 -12 -38 -40 0
-6 -12 -39 -41 0
-6 -12 -40 -42 0
-6 -12 -41 -43 0
-6 -12 -42 -44 0
-6 -12 -43 -45 0
-6 -12 -44 -46 0
-6 -12 -45 -47 0
-6 -12 -46 -48 0
-6 -12 -47 -49 0
-6 -12 -48 -50 0
-6 -13 -14 -35 0
-6 -13 -14 -37 0
-6 -13 -15 -16 0
-6 -13 -15 -36 0
-6 -13 -15 -40 0
-6 -13 -16 -37 0
-6 -13 -16 -43 0
-6 -13 -17 -18 0
-6 -13 -17 -38 0
-6 -13 -17 -46 0
-6 -13 -18 -21 0
-6 -13 -18 -39 0
-6 -13 -18 -49 0
-6 -13 -19 -24 0
-6 -13 -19 -40 0
-6 -13 -20 -27 0
-6 -13 -20 -41 0
-6 -13 -21 -30 0
-6 -13 -21 -42 0
-6 -13 -22 -33 0
-6 -13 -22 -43 0
-6 -13 -23 -36 0
-6 -13 -23 -44 0
-6 -13 -24 -39 0
-6 -13 -24 -45 0
-6 -13 -25 -42 0
-6 -13 -25 -46 0
-6 -13 -26 -45 0
-6 -13 -26 -47 0
-6 -13 -27 -48 0
-6 -13 -28 -49 0
-6 -13 -29 -50 0
-6 -14 -15 -17 0
-6 -14 -15 -39 0
-6 -14 -15 -41 0
-6 -14 -16 -40 0
-6 -14 -16 -44 0
-6 -14 -17 -41 0
-6 -14 -17 -47 0
-6 -14 -18 -42 0
-6 -14 -18 -50 0
-6 -14 -19 -21 0
-6 -14 -19 -43 0
-6 -14 -20 -24 0
-6 -14 -20 -44 0
-6 -14 -21 -27 0
-6 -14 -21 -45 0
-6 -14 -22 -30 0
-6 -14 -22 -46 0
-6 -14 -23 -33 0
-6 -14 -23 -47 0
-6 -14 -24 -36 0
-6 -14 -24 -48 0
-6 -14 -25 -39 0
-6 -14 -25 -49 0
-6 -14 -26 -42 0
-6 -14 -26 -50 0
-6 -14 -27 -45 0
-6 -14 -28 -48 0
-6 -15 -16 -19 0
-6 -15 -16 -43 0
-6 -15 -16 -45 0
-6 -15 -17 -20 0
-6 -15 -17 -44 0
-6 -15 -17 -48 0
-6 -15 -18 -19 0
-6 -15 -18 -21 0
-6 -15 -18 -45 0
-6 -15 -19 -22 0
-6 -15 -19 -46 0
-6 -15 -20 -21 0
-6 -15 -20 -23 0
-6 -15 -20 -47 0
-6 -15 -21 -24 0
-6 -15 -21 -48 0
-6 -15 -22 -25 0
-6 -15 -22 -27 0
-6 -15 -22 -49 0
-6 -15 -23 -26 0
-6 -15 -23 -30 0
-6 -15 -23 -50 0
-6 -15 -24 -27 0
-6 -15 -24 -33 0
-6 -15 -25 -28 0
-6 -15 -25 -36 0
-6 -15 -26 -29 0
-6 -15 -26 -39 0
-6 -15 -27 -30 0
-6 -15 -27 -42 0
-6 -15 -28 -31 0
-6 -15 -28 -45 0
-6 -15 -29 -32 0
-6 -15 -29 -48 0
-6 -15 -30 -33 0
-6 -15 -31 -34 0
-6 -15 -32 -35 0
-6 -15 -33 -36 0
-6 -15 -34 -37 0
-6 -15 -35 -38 0
-6 -15 -36 -39 0
-6 -15 -37 -40 0
-6 -15 -38 -41 0
-6 -15 -39 -42 0
-6 -15 -40 -43 0
-6 -15 -41 -44 0
-6 -15 -42 -45 0
-6 -15 -43 -46 0
-6 -15 -44 -47 0
-6 -15 -45 -48 0
-6 -15 -46 -49 0
-6 -15 -47 -50 0
-6 -16 -17 -47 0
-6 -16 -17 -49 0
-6 -16 -18 -20 0
-6 -16 -18 -48 0
-6 -16 -19 -49 0
-6 -16 -20 -50 0
-6 -16 -22 -24 0
-6 -16 -23 -27 0
-6 -16 -24 -30 0
-6 -16 -25 -33 0
-6 -16 -26 -36 0
-6 -16 -27 -39 0
-6 -16 -28 -42 0
-6 -16 -29 -45 0
-6 -16 -30 -48 0
-6 -17 -18 -21 0
-6 -17 -21 -22 0
-6 -17 -23 -24 0
-6 -17 -24 -27 0
-6 -17 -25 -30 0
-6 -17 -26 -33 0
-6 -17 -27 -36 0
-6 -17 -28 -39 0
-6 -17 -29 -42 0
-6 -17 -30 -45 0
-6 -17 -31 -48 0
-6 -18 -19 -23 0
-6 -18 -20 -24 0
-6 -18 -21 -23 0
-6 -18 -21 -25 0
-6 -18 -22 -26 0
-6 -18 -23 -27 0
-6 -18 -24 -28 0
-6 -18 -25 -27 0
-6 -18 -25 -29 0
-6 -18 -26 -30 0
-6 -18 -27 -31 0
-6 -18 -27 -33 0
-6 -18 -28 -32 0
-6 -18 -28 -36 0
-6 -18 -29 -33 0
-6 -18 -29 -39 0
-6 -18 -30 -34 0
-6 -18 -30 -42 0
-6 -18 -31 -35 0
-6 -18 -31 -45 0
-6 -18 -32 -36 0
-6 -18 -32 -48 0
-6 -18 -33 -37 0
-6 -18 -34 -38 0
-6 -18 -35 -39 0
-6 -18 -36 -40 0
-6 -18 -37 -41 0
-6 -18 -38 -42 0
-6 -18 -39 -43 0
-6 -18 -40 -44 0
-6 -18 -41 -45 0
-6 -18 -42 -46 0
-6 -18 -43 -47 0
-6 -18 -44 -48 0
-6 -18 -45 -49 0
-6 -18 -46 -50 0
-6 -19 -21 -24 0
-6 -19 -24 -25 0
-6 -19 -26 -27 0
-6 -19 -27 -30 0
-6 -19 -28 -33 0
-6 -19 -29 -36 0
-6 -19 -30 -39 0
-6 -19 -31 -42 0
-6 -19 -32 -45 0
-6 -19 -33 -48 0
-6 -20 -21 -25 0
-6 -20 -24 -26 0
-6 -20 -28 -30 0
-6 -20 -29 -33 0
-6 -20 -30 -36 0
-6 -20 -31 -39 0
-6 -20 -32 -42 0
-6 -20 -33 -45 0
-6 -20 -34 -48 0
-6 -21 -22 -27 0
-6 -21 -23 -28 0
-6 -21 -24 -27 0
-6 -21 -24 -29 0
-6 -21 -25 -30 0
-6 -21 -26 -31 0
-6 -21 -27 -28 0
-6 -21 -27 -32 0
-6 -21 -28 -33 0
-6 -21 -29 -30 0
-6 -21 -29 -34 0
-6 -21 -30 -33 0
-6 -21 -30 -35 0
-6 -21 -31 -36 0
-6 -21 -32 -37 0
-6 -21 -32 -39 0
-6 -21 -33 -38 0
-6 -21 -33 -42 0
-6 -21 -34 -39 0
-6 -21 -34 -45 0
-6 -21 -35 -40 0
-6 -21 -35 -48 0
-6 -21 -36 -41 0
-6 -21 -37 -42 0
-6 -21 -38 -43 0
-6 -21 -39 -44 0
-6 -21 -40 -45 0
-6 -21 -41 -46 0
-6 -21 -42 -47 0
-6 -21 -43 -48 0
-6 -21 -44 -49 0
-6 -21 -45 -50 0
-6 -22 -24 -28 0
-6 -22 -27 -29 0
-6 -22 -31 -33 0
-6 -22 -32 -36 0
-6 -22 -33 -39 0
-6 -22 -34 -42 0
-6 -22 -35 -45 0
-6 -22 -36 -48 0
-6 -23 -24 -29 0
-6 -23 -27 -30 0
-6 -23 -30 -31 0
-6 -23 -32 -33 0
-6 -23 -33 -36 0
-6 -23 -34 -39 0
-6 -23 -35 -42 0
-6 -23 -36 -45 0
-6 -23 -37 -48 0
-6 -24 -25 -31 0
-6 -24 -26 -32 0
-6 -24 -27 -31 0
-6 -24 -27 -33 0
-6 -24 -28 -34 0
-6 -24 -29 -35 0
-6 -24 -30 -32 0
-6 -24 -30 -36 0
-6 -24 -31 -37 0
-6 -24 -32 -38 0
-6 -24 -33 -39 0
-6 -24 -34 -36 0
-6 -24 -34 -40 0
-6 -24 -35 -39 0
-6 -24 -35 -41 0
-6 -24 -36 -42 0
-6 -24 -37 -43 0
-6 -24 -37 -45 0
-6 -24 -38 -44 0
-6 -24 -38 -48 0
-6 -24 -39 -45 0
-6 -24 -40 -46 0
-6 -24 -41 -47 0
-6 -24 -42 -48 0
-6 -24 -43 -49 0
-6 -24 -44 -50 0
-6 -25 -27 -32 0
-6 -25 -30 -33 0
-6 -25 -33 -34 0
-6 -25 -35 -36 0
-6 -25 -36 -39 0
-6 -25 -37 -42 0
-6 -25 -38 -45 0
-6 -25 -39 -48 0
-6 -26 -27 -33 0
-6 -26 -30 -34 0
-6 -26 -33 -35 0
-6 -26 -37 -39 0
-6 -26 -38 -42 0
-6 -26 -39 -45 0
-6 -26 -40 -48 0
-6 -27 -28 -35 0
-6 -27 -29 -36 0
-6 -27 -30 -35 0
-6 -27 -30 -37 0
-6 -27 -31 -38 0
-6 -27 -32 -39 0
-6 -27 -33 -36 0
-6 -27 -33 -40 0
-6 -27 -34 -41 0
-6 -27 -35 -42 0
-6 -27 -36 -37 0
-6 -27 -36 -43 0
-6 -27 -37 -44 0
-6 -27 -38 -39 0
-6 -27 -38 -45 0
-6 -27 -39 -42 0
-6 -27 -39 -46 0
-6 -27 -40 -45 0
-6 -27 -40 -47 0
-6 -27 -41 -48 0
-6 -27 -42 -49 0
-6 -27 -43 -50 0
-6 -28 -30 -36 0
-6 -28 -33 -37 0
-6 -28 -36 -38 0
-6 -28 -40 -42 0
-6 -28 -41 -45 0
-6 -28 -42 -48 0
-6 -29 -30 -37 0
-6 -29 -33 -38 0
-6 -29 -36 -39 0
-6 -29 -39 -40 0
-6 -29 -41 -42 0
-6 -29 -42 -45 0
-6 -29 -43 -48 0
-6 -30 -31 -39 0
-6 -30 -32 -40 0
-6 -30 -33 -39 0
-6 -30 -33 -41 0
-6 -30 -34 -42 0
-6 -30 -35 -43 0
-6 -30 -36 -40 0
-6 -30 -36 -44 0
-6 -30 -37 -45 0
-6 -30 -38 -46 0
-6 -30 -39 -41 0
-6 -30 -39 -47 0
-6 -30 -40 -48 0
-6 -30 -41 -49 0
-6 -30 -42 -50 0
-6 -30 -43 -45 0
-6 -30 -44 -48 0
-6 -31 -33 -40 0
-6 -31 -36 -41 0
-6 -31 -39 -42 0
-6 -31 -42 -43 0
-6 -31 -44 -45 0
-6 -31 -45 -48 0
-6 -32 -33 -41 0
-6 -32 -36 -42 0
-6 -32 -39 -43 0
-6 -32 -42 -44 0
-6 -32 -46 -48 0
-6 -33 -34 -43 0
-6 -33 -35 -44 0
-6 -33 -36 -43 0
-6 -33 -36 -45 0
-6 -33 -37 -46 0
-6 -33 -38 -47 0
-6 -33 -39 -44 0
-6 -33 -39 -48 0
-6 -33 -40 -49 0
-6 -33 -41 -50 0
-6 -33 -42 -45 0
-6 -33 -45 -46 0
-6 -33 -47 -48 0
-6 -34 -36 -44 0
-6 -34 -39 -45 0
-6 -34 -42 -46 0
-6 -34 -45 -47 0
-6 -35 -36 -45 0
-6 -35 -39 -46 0
-6 -35 -42 -47 0
-6 -35 -45 -48 0
-6 -35 -48 -49 0
-6 -36 -37 -47 0
-6 -36 -38 -48 0
-6 -36 -39 -47 0
-6 -36 -39 -49 0
-6 -36 -40 -50 0
-6 -36 -42 -48 0
-6 -36 -45 -49 0
-6 -36 -48 -50 0
-6 -37 -39 -48 0
-6 -37 -42 -49 0
-6 -37 -45 -50 0
-6 -38 -39 -49 0
-6 -38 -42 -50 0
-7 -8 -9 -10 0
-7 -8 -9 -12 0
-7 -8 -9 -14 0
-7 -8 -10 -13 0
-7 -8 -10 -17 0
-7 -8 -11 -14 0
-7 -8 -11 -16 0
-7 -8 -11 -20 0
-7 -8 -12 -15 0
-7 -8 -12 -19 0
-7 -8 -12 -23 0
-7 -8 -13 -16 0
-7 -8 -13 -22 0
-7 -8 -13 -26 0
-7 -8 -14 -17 0
-7 -8 -14 -25 0
-7 -8 -14 -29 0
-7 -8 -15 -18 0
-7 -8 -15 -28 0
-7 -8 -15 -32 0
-7 -8 -16 -19 0
-7 -8 -16 -31 0
-7 -8 -16 -35 0
-7 -8 -17 -20 0
-7 -8 -17 -34 0
-7 -8 -17 -38 0
-7 -8 -18 -21 0
-7 -8 -18 -37 0
-7 -8 -18 -41 0
-7 -8 -19 -22 0
-7 -8 -19 -40 0
-7 -8 -19 -44 0
-7 -8 -20 -23 0
-7 -8 -20 -43 0
-7 -8 -20 -47 0
-7 -8 -21 -24 0
-7 -8 -21 -46 0
-7 -8 -21 -50 0
-7 -8 -22 -25 0
-7 -8 -22 -49 0
-7 -8 -23 -26 0
-7 -8 -24 -27 0
-7 -8 -25 -28 0
-7 -8 -26 -29 0
-7 -8 -27 -30 0
-7 -8 -28 -31 0
-7 -8 -29 -32 0
-7 -8 -30 -33 0
-7 -8 -31 -34 0
-7 -8 -32 -35 0
-7 -8 -33 -36 0
-7 -8 -34 -37 0
-7 -8 -35 -38 0
-7 -8 -36 -39 0
-7 -8 -37 -40 0
-7 -8 -38 -41 0
-7 -8 -39 -42 0
-7 -8 -40 -43 0
-7 -8 -41 -44 0
-7 -8 -42 -45 0
-7 -8 -43 -46 0
-7 -8 -44 -47 0
-7 -8 -45 -48 0
-7 -8 -46 -49 0
-7 -8 -47 -50 0
-7 -9 -10 -16 0
-7 -9 -10 -18 0
-7 -9 -11 -13 0
-7 -9 -11 -17 0
-7 -9 -11 -21 0
-7 -9 -12 -16 0
-7 -9 -12 -18 0
-7 -9 -12 -24 0
-7 -9 -13 -19 0
-7 -9 -13 -27 0
-7 -9 -14 -20 0
-7 -9 -14 -22 0
-7 -9 -14 -30 0
-7 -9 -15 -21 0
-7 -9 -15 -25 0
-7 -9 -15 -33 0
-7 -9 -16 -22 0
-7 -9 -16 -28 0
-7 -9 -16 -36 0
-7 -9 -17 -23 0
-7 -9 -17 -31 0
-7 -9 -17 -39 0
-7 -9 -18 -24 0
-7 -9 -18 -34 0
-7 -9 -18 -42 0
-7 -9 -19 -25 0
-7 -9 -19 -37 0
-7 -9 -19 -45 0
-7 -9 -20 -26 0
-7 -9 -20 -40 0
-7 -9 -20 -48 0
-7 -9 -21 -27 0
-7 -9 -21 -43 0
-7 -9 -22 -28 0
-7 -9 -22 -46 0
-7 -9 -23 -29 0
-7 -9 -23 -49 0
-7 -9 -24 -30 0
-7 -9 -25 -31 0
-7 -9 -26 -32 0
-7 -9 -27 -33 0
-7 -9 -28 -34 0
-7 -9 -29 -35 0
-7 -9 -30 -36 0
-7 -9 -31 -37 0
-7 -9 -32 -38 0
-7 -9 -33 -39 0
-7 -9 -34 -40 0
-7 -9 -35 -41 0
-7 -9 -36 -42 0
-7 -9 -37 -43 0
-7 -9 -38 -44 0
-7 -9 -39 -45 0
-7 -9 -40 -46 0
-7 -9 -41 -47 0
-7 -9 -42 -48 0
-7 -9 -43 -49 0
-7 -9 -44 -50 0
-7 -10 -11 -12 0
-7 -10 -11 -20 0
-7 -10 -11 -22 0
-7 -10 -12 -13 0
-7 -10 -12 -21 0
-7 -10 -12 -25 0
-7 -10 -13 -14 0
-7 -10 -13 -16 0
-7 -10 -13 -22 0
-7 -10 -13 -28 0
-7 -10 -14 -15 0
-7 -10 -14 -19 0
-7 -10 -14 -23 0
-7 -10 -14 -31 0
-7 -10 -15 -16 0
-7 -10 -15 -22 0
-7 -10 -15 -24 0
-7 -10 -15 -34 0
-7 -10 -16 -17 0
-7 -10 -16 -25 0
-7 -10 -16 -37 0
-7 -10 -17 -18 0
-7 -10 -17 -26 0
-7 -10 -17 -28 0
-7 -10 -17 -40 0
-7 -10 -18 -19 0
-7 -10 -18 -27 0
-7 -10 -18 -31 0
-7 -10 -18 -43 0
-7 -10 -19 -20 0
-7 -10 -19 -28 0
-7 -10 -19 -34 0
-7 -10 -19 -46 0
-7 -10 -20 -21 0
-7 -10 -20 -29 0
-7 -10 -20 -37 0
-7 -10 -20 -49 0
-7 -10 -21 -22 0
-7 -10 -21 -30 0
-7 -10 -21 -40 0
-7 -10 -22 -23 0
-7 -10 -22 -31 0
-7 -10 -22 -43 0
-7 -10 -23 -24 0
-7 -10 -23 -32 0
-7 -10 -23 -46 0
-7 -10 -24 -25 0
-7 -10 -24 -33 0
-7 -10 -24 -49 0
-7 -10 -25 -26 0
-7 -10 -25 -34 0
-7 -10 -26 -27 0
-7 -10 -26 -35 0
-7 -10 -27 -28 0
-7 -10 -27 -36 0
-7 -10 -28 -29 0
-7 -10 -28 -37 0
-7 -10 -29 -30 0
-7 -10 -29 -38 0
-7 -10 -30 -31 0
-7 -10 -30 -39 0
-7 -10 -31 -32 0
-7 -10 -31 -40 0
-7 -10 -32 -33 0
-7 -10 -32 -41 0
-7 -10 -33 -34 0
-7 -10 -33 -42 0
-7 -10 -34 -35 0
-7 -10 -34 -43 0
-7 -10 -35 -36 0
-7 -10 -35 -44 0
-7 -10 -36 -37 0
-7 -10 -36 -45 0
-7 -10 -37 -38 0
-7 -10 -37 -46 0
-7 -10 -38 -39 0
-7 -10 -38 -47 0
-7 -10 -39 -40 0
-7 -10 -39 -48 0
-7 -10 -40 -41 0
-7 -10 -40 -49 0
-7 -10 -41 -42 0
-7 -10 -41 -50 0
-7 -10 -42 -43 0
-7 -10 -43 -44 0
-7 -10 -44 -45 0
-7 -10 -45 -46 0
-7 -10 -46 -47 0
-7 -10 -47 -48 0
-7 -10 -48 -49 0
-7 -10 -49 -50 0
-7 -11 -12 -24 0
-7 -11 -12 -26 0
-7 -11 -13 -25 0
-7 -11 -13 -29 0
-7 -11 -14 -16 0
-7 -11 -14 -26 0
-7 -11 -14 -32 0
-7 -11 -15 -19 0
-7 -11 -15 -27 0
-7 -11 -15 -35 0
-7 -11 -16 -22 0
-7 -11 -16 -28 0
-7 -11 -16 -38 0
-7 -11 -17 -25 0
-7 -11 -17 -29 0
-7 -11 -17 -41 0
-7 -11 -18 -28 0
-7 -11 -18 -30 0
-7 -11 -18 -44 0
-7 -11 -19 -31 0
-7 -11 -19 -47 0
-7 -11 -20 -32 0
-7 -11 -20 -34 0
-7 -11 -20 -50 0
-7 -11 -21 -33 0
-7 -11 -21 -37 0
-7 -11 -22 -34 0
-7 -11 -22 -40 0
-7 -11 -23 -35 0
-7 -11 -23 -43 0
-7 -11 -24 -36 0
-7 -11 -24 -46 0
-7 -11 -25 -37 0
-7 -11 -25 -49 0
-7 -11 -26 -38 0
-7 -11 -27 -39 0
-7 -11 -28 -40 0
-7 -11 -29 -41 0
-7 -11 -30 -42 0
-7 -11 -31 -43 0
-7 -11 -32 -44 0
-7 -11 -33 -45 0
-7 -11 -34 -46 0
-7 -11 -35 -47 0
-7 -11 -36 -48 0
-7 -11 -37 -49 0
-7 -11 -38 -50 0
-7 -12 -13 -14 0
-7 -12 -13 -28 0
-7 -12 -13 -30 0
-7 -12 -14 -29 0
-7 -12 -14 -33 0
-7 -12 -15 -16 0
-7 -12 -15 -30 0
-7 -12 -15 -36 0
-7 -12 -16 -19 0
-7 -12 -16 -31 0
-7 -12 -16 -39 0
-7 -12 -17 -22 0
-7 -12 -17 -32 0
-7 -12 -17 -42 0
-7 -12 -18 -25 0
-7 -12 -18 -33 0
-7 -12 -18 -45 0
-7 -12 -19 -28 0
-7 -12 -19 -34 0
-7 -12 -19 -48 0
-7 -12 -20 -31 0
-7 -12 -20 -35 0
-7 -12 -21 -34 0
-7 -12 -21 -36 0
-7 -12 -22 -37 0
-7 -12 -23 -38 0
-7 -12 -23 -40 0
-7 -12 -24 -39 0
-7 -12 -24 -43 0
-7 -12 -25 -40 0
-7 -12 -25 -46 0
-7 -12 -26 -41 0
-7 -12 -26 -49 0
-7 -12 -27 -42 0
-7 -12 -28 -43 0
-7 -12 -29 -44 0
-7 -12 -30 -45 0
-7 -12 -31 -46 0
-7 -12 -32 -47 0
-7 -12 -33 -48 0
-7 -12 -34 -49 0
-7 -12 -35 -50 0
-7 -13 -14 -16 0
-7 -13 -14 -32 0
-7 -13 -14 -34 0
-7 -13 -15 -17 0
-7 -13 -15 -33 0
-7 -13 -15 -37 0
-7 -13 -16 -18 0
-7 -13 -16 -34 0
-7 -13 -16 -40 0
-7 -13 -17 -19 0
-7 -13 -17 -35 0
-7 -13 -17 -43 0
-7 -13 -18 -20 0
-7 -13 -18 -22 0
-7 -13 -18 -36 0
-7 -13 -18 -46 0
-7 -13 -19 -21 0
-7 -13 -19 -25 0
-7 -13 -19 -37 0
-7 -13 -19 -49 0
-7 -13 -20 -22 0
-7 -13 -20 -28 0
-7 -13 -20 -38 0
-7 -13 -21 -23 0
-7 -13 -21 -31 0
-7 -13 -21 -39 0
-7 -13 -22 -24 0
-7 -13 -22 -34 0
-7 -13 -22 -40 0
-7 -13 -23 -25 0
-7 -13 -23 -37 0
-7 -13 -23 -41 0
-7 -13 -24 -26 0
-7 -13 -24 -40 0
-7 -13 -24 -42 0
-7 -13 -25 -27 0
-7 -13 -25 -43 0
-7 -13 -26 -28 0
-7 -13 -26 -44 0
-7 -13 -26 -46 0
-7 -13 -27 -29 0
-7 -13 -27 -45 0
-7 -13 -27 -49 0
-7 -13 -28 -30 0
-7 -13 -28 -46 0
-7 -13 -29 -31 0
-7 -13 -29 -47 0
-7 -13 -30 -32 0
-7 -13 -30 -48 0
-7 -13 -31 -33 0
-7 -13 -31 -49 0
-7 -13 -32 -34 0
-7 -13 -32 -50 0
-7 -13 -33 -35 0
-7 -13 -34 -36 0
-7 -13 -35 -37 0
-7 -13 -36 -38 0
-7 -13 -37 -39 0
-7 -13 -38 -40 0
-7 -13 -39 -41 0
-7 -13 -40 -42 0
-7 -13 -41 -43 0
-7 -13 -42 -44 0
-7 -13 -43 -45 0
-7 -13 -44 -46 0
-7 -13 -45 -47 0
-7 -13 -46 -48 0
-7 -13 -47 -49 0
-7 -13 -48 -50 0
-7 -14 -15 -36 0
-7 -14 -15 -38 0
-7 -14 -16 -17 0
-7 -14 -16 -37 0
-7 -14 -16 -41 0
-7 -14 -17 -38 0
-7 -14 -17 -44 0
-7 -14 -18 -19 0
-7 -14 -18 -39 0
-7 -14 -18 -47 0
-7 -14 -19 -22 0
-7 -14 -19 -40 0
-7 -14 -19 -50 0
-7 -14 -20 -25 0
-7 -14 -20 -41 0
-7 -14 -21 -28 0
-7 -14 -21 -42 0
-7 -14 -22 -31 0
-7 -14 -22 -43 0
-7 -14 -23 -34 0
-7 -14 -23 -44 0
-7 -14 -24 -37 0
-7 -14 -24 -45 0
-7 -14 -25 -40 0
-7 -14 -25 -46 0
-7 -14 -26 -43 0
-7 -14 -26 -47 0
-7 -14 -27 -46 0
-7 -14 -27 -48 0
-7 -14 -28 -49 0
-7 -14 -29 -50 0
-7 -15 -16 -18 0
-7 -15 -16 -40 0
-7 -15 -16 -42 0
-7 -15 -17 -41 0
-7 -15 -17 -45 0
-7 -15 -18 -42 0
-7 -15 -18 -48 0
-7 -15 -19 -43 0
-7 -15 -20 -22 0
-7 -15 -20 -44 0
-7 -15 -21 -25 0
-7 -15 -21 -45 0
-7 -15 -22 -28 0
-7 -15 -22 -46 0
-7 -15 -23 -31 0
-7 -15 -23 -47 0
-7 -15 -24 -34 0
-7 -15 -24 -48 0
-7 -15 -25 -37 0
-7 -15 -25 -49 0
-7 -15 -26 -40 0
-7 -15 -26 -50 0
-7 -15 -27 -43 0
-7 -15 -28 -46 0
-7 -15 -29 -49 0
-7 -16 -17 -20 0
-7 -16 -17 -44 0
-7 -16 -17 -46 0
-7 -16 -18 -21 0
-7 -16 -18 -45 0
-7 -16 -18 -49 0
-7 -16 -19 -20 0
-7 -16 -19 -22 0
-7 -16 -19 -46 0
-7 -16 -20 -23 0
-7 -16 -20 -47 0
-7 -16 -21 -22 0
-7 -16 -21 -24 0
-7 -16 -21 -48 0
-7 -16 -22 -25 0
-7 -16 -22 -49 0
-7 -16 -23 -26 0
-7 -16 -23 -28 0
-7 -16 -23 -50 0
-7 -16 -24 -27 0
-7 -16 -24 -31 0
-7 -16 -25 -28 0
-7 -16 -25 -34 0
-7 -16 -26 -29 0
-7 -16 -26 -37 0
-7 -16 -27 -30 0
-7 -16 -27 -40 0
-7 -16 -28 -31 0
-7 -16 -28 -43 0
-7 -16 -29 -32 0
-7 -16 -29 -46 0
-7 -16 -30 -33 0
-7 -16 -30 -49 0
-7 -16 -31 -34 0
-7 -16 -32 -35 0
-7 -16 -33 -36 0
-7 -16 -34 -37 0
-7 -16 -35 -38 0
-7 -16 -36 -39 0
-7 -16 -37 -40 0
-7 -16 -38 -41 0
-7 -16 -39 -42 0
-7 -16 -40 -43 0
-7 -16 -41 -44 0
-7 -16 -42 -45 0
-7 -16 -43 -46 0
-7 -16 -44 -47 0
-7 -16 -45 -48 0
-7 -16 -46 -49 0
-7 -16 -47 -50 0
-7 -17 -18 -48 0
-7 -17 -18 -50 0
-7 -17 -19 -21 0
-7 -17 -19 -49 0
-7 -17 -20 -50 0
-7 -17 -23 -25 0
-7 -17 -24 -28 0
-7 -17 -25 -31 0
-7 -17 -26 -34 0
-7 -17 -27 -37 0
-7 -17 -28 -40 0
-7 -17 -29 -43 0
-7 -17 -30 -46 0
-7 -17 -31 -49 0
-7 -18 -19 -22 0
-7 -18 -22 -23 0
-7 -18 -24 -25 0
-7 -18 -25 -28 0
-7 -18 -26 -31 0
-7 -18 -27 -34 0
-7 -18 -28 -37 0
-7 -18 -29 -40 0
-7 -18 -30 -43 0
-7 -18 -31 -46 0
-7 -18 -32 -49 0
-7 -19 -20 -24 0
-7 -19 -21 -25 0
-7 -19 -22 -24 0
-7 -19 -22 -26 0
-7 -19 -23 -27 0
-7 -19 -24 -28 0
-7 -19 -25 -29 0
-7 -19 -26 -28 0
-7 -19 -26 -30 0
-7 -19 -27 -31 0
-7 -19 -28 -32 0
-7 -19 -28 -34 0
-7 -19 -29 -33 0
-7 -19 -29 -37 0
-7 -19 -30 -34 0
-7 -19 -30 -40 0
-7 -19 -31 -35 0
-7 -19 -31 -43 0
-7 -19 -32 -36 0
-7 -19 -32 -46 0
-7 -19 -33 -37 0
-7 -19 -33 -49 0
-7 -19 -34 -38 0
-7 -19 -35 -39 0
-7 -19 -36 -40 0
-7 -19 -37 -41 0
-7 -19 -38 -42 0
-7 -19 -39 -43 0
-7 -19 -40 -44 0
-7 -19 -41 -45 0
-7 -19 -42 -46 0
-7 -19 -43 -47 0
-7 -19 -44 -48 0
-7 -19 -45 -49 0
-7 -19 -46 -50 0
-7 -20 -22 -25 0
-7 -20 -25 -26 0
-7 -20 -27 -28 0
-7 -20 -28 -31 0
-7 -20 -29 -34 0
-7 -20 -30 -37 0
-7 -20 -31 -40 0
-7 -20 -32 -43 0
-7 -20 -33 -46 0
-7 -20 -34 -49 0
-7 -21 -22 -26 0
-7 -21 -25 -27 0
-7 -21 -29 -31 0
-7 -21 -30 -34 0
-7 -21 -31 -37 0
-7 -21 -32 -40 0
-7 -21 -33 -43 0
-7 -21 -34 -46 0
-7 -21 -35 -49 0
-7 -22 -23 -28 0
-7 -22 -24 -29 0
-7 -22 -25 -28 0
-7 -22 -25 -30 0
-7 -22 -26 -31 0
-7 -22 -27 -32 0
-7 -22 -28 -29 0
-7 -22 -28 -33 0
-7 -22 -29 -34 0
-7 -22 -30 -31 0
-7 -22 -30 -35 0
-7 -22 -31 -34 0
-7 -22 -31 -36 0
-7 -22 -32 -37 0
-7 -22 -33 -38 0
-7 -22 -33 -40 0
-7 -22 -34 -39 0
-7 -22 -34 -43 0
-7 -22 -35 -40 0
-7 -22 -35 -46 0
-7 -22 -36 -41 0
-7 -22 -36 -49 0
-7 -22 -37 -42 0
-7 -22 -38 -43 0
-7 -22 -39 -44 0
-7 -22 -40 -45 0
-7 -22 -41 -46 0
-7 -22 -42 -47 0
-7 -22 -43 -48 0
-7 -22 -44 -49 0
-7 -22 -45 -50 0
-7 -23 -25 -29 0
-7 -23 -28 -30 0
-7 -23 -32 -34 0
-7 -23 -33 -37 0
-7 -23 -34 -40 0
-7 -23 -35 -43 0
-7 -23 -36 -46 0
-7 -23 -37 -49 0
-7 -24 -25 -30 0
-7 -24 -28 -31 0
-7 -24 -31 -32 0
-7 -24 -33 -34 0
-7 -24 -34 -37 0
-7 -24 -35 -40 0
-7 -24 -36 -43 0
-7 -24 -37 -46 0
-7 -24 -38 -49 0
-7 -25 -26 -32 0
-7 -25 -27 -33 0
-7 -25 -28 -32 0
-7 -25 -28 -34 0
-7 -25 -29 -35 0
-7 -25 -30 -36 0
-7 -25 -31 -33 0
-7 -25 -31 -37 0
-7 -25 -32 -38 0
-7 -25 -33 -39 0
-7 -25 -34 -40 0
-7 -25 -35 -37 0
-7 -25 -35 -41 0
-7 -25 -36 -40 0
-7 -25 -36 -42 0
-7 -25 -37 -43 0
-7 -25 -38 -44 0
-7 -25 -38 -46 0
-7 -25 -39 -45 0
-7 -25 -39 -49 0
-7 -25 -40 -46 0
-7 -25 -41 -47 0
-7 -25 -42 -48 0
-7 -25 -43 -49 0
-7 -25 -44 -50 0
-7 -26 -28 -33 0
-7 -26 -31 -34 0
-7 -26 -34 -35 0
-7 -26 -36 -37 0
-7 -26 -37 -40 0
-7 -26 -38 -43 0
-7 -26 -39 -46 0
-7 -26 -40 -49 0
-7 -27 -28 -34 0
-7 -27 -31 -35 0
-7 -27 -34 -36 0
-7 -27 -38 -40 0
-7 -27 -39 -43 0
-7 -27 -40 -46 0
-7 -27 -41 -49 0
-7 -28 -29 -36 0
-7 -28 -30 -37 0
-7 -28 -31 -36 0
-7 -28 -31 -38 0
-7 -28 -32 -39 0
-7 -28 -33 -40 0
-7 -28 -34 -37 0
-7 -28 -34 -41 0
-7 -28 -35 -42 0
-7 -28 -36 -43 0
-7 -28 -37 -38 0
-7 -28 -37 -44 0
-7 -28 -38 -45 0
-7 -28 -39 -40 0
-7 -28 -39 -46 0
-7 -28 -40 -43 0
-7 -28 -40 -47 0
-7 -28 -41 -46 0
-7 -28 -41 -48 0
-7 -28 -42 -49 0
-7 -28 -43 -50 0
-7 -29 -31 -37 0
-7 -29 -34 -38 0
-7 -29 -37 -39 0
-7 -29 -41 -43 0
-7 -29 -42 -46 0
-7 -29 -43 -49 0
-7 -30 -31 -38 0
-7 -30 -34 -39 0
-7 -30 -37 -40 0
-7 -30 -40 -41 0
-7 -30 -42 -43 0
-7 -30 -43 -46 0
-7 -30 -44 -49 0
-7 -31 -32 -40 0
-7 -31 -33 -41 0
-7 -31 -34 -40 0
-7 -31 -34 -42 0
-7 -31 -35 -43 0
-7 -31 -36 -44 0
-7 -31 -37 -41 0
-7 -31 -37 -45 0
-7 -31 -38 -46 0
-7 -31 -39 -47 0
-7 -31 -40 -42 0
-7 -31 -40 -48 0
-7 -31 -41 -49 0
-7 -31 -42 -50 0
-7 -31 -44 -46 0
-7 -31 -45 -49 0
-7 -32 -34 -41 0
-7 -32 -37 -42 0
-7 -32 -40 -43 0
-7 -32 -43 -44 0
-7 -32 -45 -46 0
-7 -32 -46 -49 0
-7 -33 -34 -42 0
-7 -33 -37 -43 0
-7 -33 -40 -44 0
-7 -33 -43 -45 0
-7 -33 -47 -49 0
-7 -34 -35 -44 0
-7 -34 -36 -45 0
-7 -34 -37 -44 0
-7 -34 -37 -46 0
-7 -34 -38 -47 0
-7 -34 -39 -48 0
-7 -34 -40 -45 0
-7 -34 -40 -49 0
-7 -34 -41 -50 0
-7 -34 -43 -46 0
-7 -34 -46 -47 0
-7 -34 -48 -49 0
-7 -35 -37 -45 0
-7 -35 -40 -46 0
-7 -35 -43 -47 0
-7 -35 -46 -48 0
-7 -36 -37 -46 0
-7 -36 -40 -47 0
-7 -36 -43 -48 0
-7 -36 -46 -49 0
-7 -36 -49 -50 0
-7 -37 -38 -48 0
-7 -37 -39 -49 0
-7 -37 -40 -48 0
-7 -37 -40 -50 0
-7 -37 -43 -49 0
-7 -37 -46 -50 0
-7 -38 -40 -49 0
-7 -38 -43 -50 0
-7 -39 -40 -50 0
-8 -9 -10 -11 0
-8 -9 -10 -13 0
-8 -9 -10 -15 0
-8 -9 -11 -14 0
-8 -9 -11 -18 0
-8 -9 -12 -15 0
-8 -9 -12 -17 0
-8 -9 -12 -21 0
-8 -9 -13 -16 0
-8 -9 -13 -20 0
-8 -9 -13 -24 0
-8 -9 -14 -17 0
-8 -9 -14 -23 0
-8 -9 -14 -27 0
-8 -9 -15 -18 0
-8 -9 -15 -26 0
-8 -9 -15 -30 0
-8 -9 -16 -19 0
-8 -9 -16 -29 0
-8 -9 -16 -33 0
-8 -9 -17 -20 0
-8 -9 -17 -32 0
-8 -9 -17 -36 0
-8 -9 -18 -21 0
-8 -9 -18 -35 0
-8 -9 -18 -39 0
-8 -9 -19 -22 0
-8 -9 -19 -38 0
-8 -9 -19 -42 0
-8 -9 -20 -23 0
-8 -9 -20 -41 0
-8 -9 -20 -45 0
-8 -9 -21 -24 0
-8 -9 -21 -44 0
-8 -9 -21 -48 0
-8 -9 -22 -25 0
-8 -9 -22 -47 0
-8 -9 -23 -26 0
-8 -9 -23 -50 0
-8 -9 -24 -27 0
-8 -9 -25 -28 0
-8 -9 -26 -29 0
-8 -9 -27 -30 0
-8 -9 -28 -31 0
-8 -9 -29 -32 0
-8 -9 -30 -33 0
-8 -9 -31 -34 0
-8 -9 -32 -35 0
-8 -9 -33 -36 0
-8 -9 -34 -37 0
-8 -9 -35 -38 0
-8 -9 -36 -39 0
-8 -9 -37 -40 0
-8 -9 -38 -41 0
-8 -9 -39 -42 0
-8 -9 -40 -43 0
-8 -9 -41 -44 0
-8 -9 -42 -45 0
-8 -9 -43 -46 0
-8 -9 -44 -47 0
-8 -9 -45 -48 0
-8 -9 -46 -49 0
-8 -9 -47 -50 0
-8 -10 -11 -17 0
-8 -10 -11 -19 0
-8 -10 -12 -14 0
-8 -10 -12 -18 0
-8 -10 -12 -22 0
-8 -10 -13 -17 0
-8 -10 -13 -19 0
-8 -10 -13 -25 0
-8 -10 -14 -20 0
-8 -10 -14 -28 0
-8 -10 -15 -21 0
-8 -10 -15 -23 0
-8 -10 -15 -31 0
-8 -10 -16 -22 0
-8 -10 -16 -26 0
-8 -10 -16 -34 0
-8 -10 -17 -23 0
-8 -10 -17 -29 0
-8 -10 -17 -37 0
-8 -10 -18 -24 0
-8 -10 -18 -32 0
-8 -10 -18 -40 0
-8 -10 -19 -25 0
-8 -10 -19 -35 0
-8 -10 -19 -43 0
-8 -10 -20 -26 0
-8 -10 -20 -38 0
-8 -10 -20 -46 0
-8 -10 -21 -27 0
-8 -10 -21 -41 0
-8 -10 -21 -49 0
-8 -10 -22 -28 0
-8 -10 -22 -44 0
-8 -10 -23 -29 0
-8 -10 -23 -47 0
-8 -10 -24 -30 0
-8 -10 -24 -50 0
-8 -10 -25 -31 0
-8 -10 -26 -32 0
-8 -10 -27 -33 0
-8 -10 -28 -34 0
-8 -10 -29 -35 0
-8 -10 -30 -36 0
-8 -10 -31 -37 0
-8 -10 -32 -38 0
-8 -10 -33 -39 0
-8 -10 -34 -40 0
-8 -10 -35 -41 0
-8 -10 -36 -42 0
-8 -10 -37 -43 0
-8 -10 -38 -44 0
-8 -10 -39 -45 0
-8 -10 -40 -46 0
-8 -10 -41 -47 0
-8 -10 -42 -48 0
-8 -10 -43 -49 0
-8 -10 -44 -50 0
-8 -11 -12 -13 0
-8 -11 -12 -21 0
-8 -11 -12 -23 0
-8 -11 -13 -14 0
-8 -11 -13 -22 0
-8 -11 -13 -26 0
-8 -11 -14 -15 0
-8 -11 -14 -17 0
-8 -11 -14 -23 0
-8 -11 -14 -29 0
-8 -11 -15 -16 0
-8 -11 -15 -20 0
-8 -11 -15 -24 0
-8 -11 -15 -32 0
-8 -11 -16 -17 0
-8 -11 -16 -23 0
-8 -11 -16 -25 0
-8 -11 -16 -35 0
-8 -11 -17 -18 0
-8 -11 -17 -26 0
-8 -11 -17 -38 0
-8 -11 -18 -19 0
-8 -11 -18 -27 0
-8 -11 -18 -29 0
-8 -11 -18 -41 0
-8 -11 -19 -20 0
-8 -11 -19 -28 0
-8 -11 -19 -32 0
-8 -11 -19 -44 0
-8 -11 -20 -21 0
-8 -11 -20 -29 0
-8 -11 -20 -35 0
-8 -11 -20 -47 0
-8 -11 -21 -22 0
-8 -11 -21 -30 0
-8 -11 -21 -38 0
-8 -11 -21 -50 0
-8 -11 -22 -23 0
-8 -11 -22 -31 0
-8 -11 -22 -41 0
-8 -11 -23 -24 0
-8 -11 -23 -32 0
-8 -11 -23 -44 0
-8 -11 -24 -25 0
-8 -11 -24 -33 0
-8 -11 -24 -47 0
-8 -11 -25 -26 0
-8 -11 -25 -34 0
-8 -11 -25 -50 0
-8 -11 -26 -27 0
-8 -11 -26 -35 0
-8 -11 -27 -28 0
-8 -11 -27 -36 0
-8 -11 -28 -29 0
-8 -11 -28 -37 0
-8 -11 -29 -30 0
-8 -11 -29 -38 0
-8 -11 -30 -31 0
-8 -11 -30 -39 0
-8 -11 -31 -32 0
-8 -11 -31 -40 0
-8 -11 -32 -33 0
-8 -11 -32 -41 0
-8 -11 -33 -34 0
-8 -11 -33 -42 0
-8 -11 -34 -35 0
-8 -11 -34 -43 0
-8 -11 -35 -36 0
-8 -11 -35 -44 0
-8 -11 -36 -37 0
-8 -11 -36 -45 0
-8 -11 -37 -38 0
-8 -11 -37 -46 0
-8 -11 -38 -39 0
-8 -11 -38 -47 0
-8 -11 -39 -40 0
-8 -11 -39 -48 0
-8 -11 -40 -41 0
-8 -11 -40 -49 0
-8 -11 -41 -42 0
-8 -11 -41 -50 0
-8 -11 -42 -43 0
-8 -11 -43 -44 0
-8 -11 -44 -45 0
-8 -11 -45 -46 0
-8 -11 -46 -47 0
-8 -11 -47 -48 0
-8 -11 -48 -49 0
-8 -11 -49 -50 0
-8 -12 -13 -25 0
-8 -12 -13 -27 0
-8 -12 -14 -26 0
-8 -12 -14 -30 0
-8 -12 -15 -17 0
-8 -12 -15 -27 0
-8 -12 -15 -33 0
-8 -12 -16 -20 0
-8 -12 -16 -28 0
-8 -12 -16 -36 0
-8 -12 -17 -23 0
-8 -12 -17 -29 0
-8 -12 -17 -39 0
-8 -12 -18 -26 0
-8 -12 -18 -30 0
-8 -12 -18 -42 0
-8 -12 -19 -29 0
-8 -12 -19 -31 0
-8 -12 -19 -45 0
-8 -12 -20 -32 0
-8 -12 -20 -48 0
-8 -12 -21 -33 0
-8 -12 -21 -35 0
-8 -12 -22 -34 0
-8 -12 -22 -38 0
-8 -12 -23 -35 0
-8 -12 -23 -41 0
-8 -12 -24 -36 0
-8 -12 -24 -44 0
-8 -12 -25 -37 0
-8 -12 -25 -47 0
-8 -12 -26 -38 0
-8 -12 -26 -50 0
-8 -12 -27 -39 0
-8 -12 -28 -40 0
-8 -12 -29 -41 0
-8 -12 -30 -42 0
-8 -12 -31 -43 0
-8 -12 -32 -44 0
-8 -12 -33 -45 0
-8 -12 -34 -46 0
-8 -12 -35 -47 0
-8 -12 -36 -48 0
-8 -12 -37 -49 0
-8 -12 -38 -50 0
-8 -13 -14 -15 0
-8 -13 -14 -29 0
-8 -13 -14 -31 0
-8 -13 -15 -30 0
-8 -13 -15 -34 0
-8 -13 -16 -17 0
-8 -13 -16 -31 0
-8 -13 -16 -37 0
-8 -13 -17 -20 0
-8 -13 -17 -32 0
-8 -13 -17 -40 0
-8 -13 -18 -23 0
-8 -13 -18 -33 0
-8 -13 -18 -43 0
-8 -13 -19 -26 0
-8 -13 -19 -34 0
-8 -13 -19 -46 0
-8 -13 -20 -29 0
-8 -13 -20 -35 0
-8 -13 -20 -49 0
-8 -13 -21 -32 0
-8 -13 -21 -36 0
-8 -13 -22 -35 0
-8 -13 -22 -37 0
-8 -13 -23 -38 0
-8 -13 -24 -39 0
-8 -13 -24 -41 0
-8 -13 -25 -40 0
-8 -13 -25 -44 0
-8 -13 -26 -41 0
-8 -13 -26 -47 0
-8 -13 -27 -42 0
-8 -13 -27 -50 0
-8 -13 -28 -43 0
-8 -13 -29 -44 0
-8 -13 -30 -45 0
-8 -13 -31 -46 0
-8 -13 -32 -47 0
-8 -13 -33 -48 0
-8 -13 -34 -49 0
-8 -13 -35 -50 0
-8 -14 -15 -17 0
-8 -14 -15 -33 0
-8 -14 -15 -35 0
-8 -14 -16 -18 0
-8 -14 -16 -34 0
-8 -14 -16 -38 0
-8 -14 -17 -19 0
-8 -14 -17 -35 0
-8 -14 -17 -41 0
-8 -14 -18 -20 0
-8 -14 -18 -36 0
-8 -14 -18 -44 0
-8 -14 -19 -21 0
-8 -14 -19 -23 0
-8 -14 -19 -37 0
-8 -14 -19 -47 0
-8 -14 -20 -22 0
-8 -14 -20 -26 0
-8 -14 -20 -38 0
-8 -14 -20 -50 0
-8 -14 -21 -23 0
-8 -14 -21 -29 0
-8 -14 -21 -39 0
-8 -14 -22 -24 0
-8 -14 -22 -32 0
-8 -14 -22 -40 0
-8 -14 -23 -25 0
-8 -14 -23 -35 0
-8 -14 -23 -41 0
-8 -14 -24 -26 0
-8 -14 -24 -38 0
-8 -14 -24 -42 0
-8 -14 -25 -27 0
-8 -14 -25 -41 0
-8 -14 -25 -43 0
-8 -14 -26 -28 0
-8 -14 -26 -44 0
-8 -14 -27 -29 0
-8 -14 -27 -45 0
-8 -14 -27 -47 0
-8 -14 -28 -30 0
-8 -14 -28 -46 0
-8 -14 -28 -50 0
-8 -14 -29 -31 0
-8 -14 -29 -47 0
-8 -14 -30 -32 0
-8 -14 -30 -48 0
-8 -14 -31 -33 0
-8 -14 -31 -49 0
-8 -14 -32 -34 0
-8 -14 -32 -50 0
-8 -14 -33 -35 0
-8 -14 -34 -36 0
-8 -14 -35 -37 0
-8 -14 -36 -38 0
-8 -14 -37 -39 0
-8 -14 -38 -40 0
-8 -14 -39 -41 0
-8 -14 -40 -42 0
-8 -14 -41 -43 0
-8 -14 -42 -44 0
-8 -14 -43 -45 0
-8 -14 -44 -46 0
-8 -14 -45 -47 0
-8 -14 -46 -48 0
-8 -14 -47 -49 0
-8 -14 -48 -50 0
-8 -15 -16 -37 0
-8 -15 -16 -39 0
-8 -15 -17 -18 0
-8 -15 -17 -38 0
-8 -15 -17 -42 0
-8 -15 -18 -39 0
-8 -15 -18 -45 0
-8 -15 -19 -20 0
-8 -15 -19 -40 0
-8 -15 -19 -48 0
-8 -15 -20 -23 0
-8 -15 -20 -41 0
-8 -15 -21 -26 0
-8 -15 -21 -42 0
-8 -15 -22 -29 0
-8 -15 -22 -43 0
-8 -15 -23 -32 0
-8 -15 -23 -44 0
-8 -15 -24 -35 0
-8 -15 -24 -45 0
-8 -15 -25 -38 0
-8 -15 -25 -46 0
-8 -15 -26 -41 0
-8 -15 -26 -47 0
-8 -15 -27 -44 0
-8 -15 -27 -48 0
-8 -15 -28 -47 0
-8 -15 -28 -49 0
-8 -15 -29 -50 0
-8 -16 -17 -19 0
-8 -16 -17 -41 0
-8 -16 -17 -43 0
-8 -16 -18 -42 0
-8 -16 -18 -46 0
-8 -16 -19 -43 0
-8 -16 -19 -49 0
-8 -16 -20 -44 0
-8 -16 -21 -23 0
-8 -16 -21 -45 0
-8 -16 -22 -26 0
-8 -16 -22 -46 0
-8 -16 -23 -29 0
-8 -16 -23 -47 0
-8 -16 -24 -32 0
-8 -16 -24 -48 0
-8 -16 -25 -35 0
-8 -16 -25 -49 0
-8 -16 -26 -38 0
-8 -16 -26 -50 0
-8 -16 -27 -41 0
-8 -16 -28 -44 0
-8 -16 -29 -47 0
-8 -16 -30 -50 0
-8 -17 -18 -21 0
-8 -17 -18 -45 0
-8 -17 -18 -47 0
-8 -17 -19 -22 0
-8 -17 -19 -46 0
-8 -17 -19 -50 0
-8 -17 -20 -21 0
-8 -17 -20 -23 0
-8 -17 -20 -47 0
-8 -17 -21 -24 0
-8 -17 -21 -48 0
-8 -17 -22 -23 0
-8 -17 -22 -25 0
-8 -17 -22 -49 0
-8 -17 -23 -26 0
-8 -17 -23 -50 0
-8 -17 -24 -27 0
-8 -17 -24 -29 0
-8 -17 -25 -28 0
-8 -17 -25 -32 0
-8 -17 -26 -29 0
-8 -17 -26 -35 0
-8 -17 -27 -30 0
-8 -17 -27 -38 0
-8 -17 -28 -31 0
-8 -17 -28 -41 0
-8 -17 -29 -32 0
-8 -17 -29 -44 0
-8 -17 -30 -33 0
-8 -17 -30 -47 0
-8 -17 -31 -34 0
-8 -17 -31 -50 0
-8 -17 -32 -35 0
-8 -17 -33 -36 0
-8 -17 -34 -37 0
-8 -17 -35 -38 0
-8 -17 -36 -39 0
-8 -17 -37 -40 0
-8 -17 -38 -41 0
-8 -17 -39 -42 0
-8 -17 -40 -43 0
-8 -17 -41 -44 0
-8 -17 -42 -45 0
-8 -17 -43 -46 0
-8 -17 -44 -47 0
-8 -17 -45 -48 0
-8 -17 -46 -49 0
-8 -17 -47 -50 0
-8 -18 -19 -49 0
-8 -18 -20 -22 0
-8 -18 -20 -50 0
-8 -18 -24 -26 0
-8 -18 -25 -29 0
-8 -18 -26 -32 0
-8 -18 -27 -35 0
-8 -18 -28 -38 0
-8 -18 -29 -41 0
-8 -18 -30 -44 0
-8 -18 -31 -47 0
-8 -18 -32 -50 0
-8 -19 -20 -23 0
-8 -19 -23 -24 0
-8 -19 -25 -26 0
-8 -19 -26 -29 0
-8 -19 -27 -32 0
-8 -19 -28 -35 0
-8 -19 -29 -38 0
-8 -19 -30 -41 0
-8 -19 -31 -44 0
-8 -19 -32 -47 0
-8 -19 -33 -50 0
-8 -20 -21 -25 0
-8 -20 -22 -26 0
-8 -20 -23 -25 0
-8 -20 -23 -27 0
-8 -20 -24 -28 0
-8 -20 -25 -29 0
-8 -20 -26 -30 0
-8 -20 -27 -29 0
-8 -20 -27 -31 0
-8 -20 -28 -32 0
-8 -20 -29 -33 0
-8 -20 -29 -35 0
-8 -20 -30 -34 0
-8 -20 -30 -38 0
-8 -20 -31 -35 0
-8 -20 -31 -41 0
-8 -20 -32 -36 0
-8 -20 -32 -44 0
-8 -20 -33 -37 0
-8 -20 -33 -47 0
-8 -20 -34 -38 0
-8 -20 -34 -50 0
-8 -20 -35 -39 0
-8 -20 -36 -40 0
-8 -20 -37 -41 0
-8 -20 -38 -42 0
-8 -20 -39 -43 0
-8 -20 -40 -44 0
-8 -20 -41 -45 0
-8 -20 -42 -46 0
-8 -20 -43 -47 0
-8 -20 -44 -48 0
-8 -20 -45 -49 0
-8 -20 -46 -50 0
-8 -21 -23 -26 0
-8 -21 -26 -27 0
-8 -21 -28 -29 0
-8 -21 -29 -32 0
-8 -21 -30 -35 0
-8 -21 -31 -38 0
-8 -21 -32 -41 0
-8 -21 -33 -44 0
-8 -21 -34 -47 0
-8 -21 -35 -50 0
-8 -22 -23 -27 0
-8 -22 -26 -28 0
-8 -22 -30 -32 0
-8 -22 -31 -35 0
-8 -22 -32 -38 0
-8 -22 -33 -41 0
-8 -22 -34 -44 0
-8 -22 -35 -47 0
-8 -22 -36 -50 0
-8 -23 -24 -29 0
-8 -23 -25 -30 0
-8 -23 -26 -29 0
-8 -23 -26 -31 0
-8 -23 -27 -32 0
-8 -23 -28 -33 0
-8 -23 -29 -30 0
-8 -23 -29 -34 0
-8 -23 -30 -35 0
-8 -23 -31 -32 0
-8 -23 -31 -36 0
-8 -23 -32 -35 0
-8 -23 -32 -37 0
-8 -23 -33 -38 0
-8 -23 -34 -39 0
-8 -23 -34 -41 0
-8 -23 -35 -40 0
-8 -23 -35 -44 0
-8 -23 -36 -41 0
-8 -23 -36 -47 0
-8 -23 -37 -42 0
-8 -23 -37 -50 0
-8 -23 -38 -43 0
-8 -23 -39 -44 0
-8 -23 -40 -45 0
-8 -23 -41 -46 0
-8 -23 -42 -47 0
-8 -23 -43 -48 0
-8 -23 -44 -49 0
-8 -23 -45 -50 0
-8 -24 -26 -30 0
-8 -24 -29 -31 0
-8 -24 -33 -35 0
-8 -24 -34 -38 0
-8 -24 -35 -41 0
-8 -24 -36 -44 0
-8 -24 -37 -47 0
-8 -24 -38 -50 0
-8 -25 -26 -31 0
-8 -25 -29 -32 0
-8 -25 -32 -33 0
-8 -25 -34 -35 0
-8 -25 -35 -38 0
-8 -25 -36 -41 0
-8 -25 -37 -44 0
-8 -25 -38 -47 0
-8 -25 -39 -50 0
-8 -26 -27 -33 0
-8 -26 -28 -34 0
-8 -26 -29 -33 0
-8 -26 -29 -35 0
-8 -26 -30 -36 0
-8 -26 -31 -37 0
-8 -26 -32 -34 0
-8 -26 -32 -38 0
-8 -26 -33 -39 0
-8 -26 -34 -40 0
-8 -26 -35 -41 0
-8 -26 -36 -38 0
-8 -26 -36 -42 0
-8 -26 -37 -41 0
-8 -26 -37 -43 0
-8 -26 -38 -44 0
-8 -26 -39 -45 0
-8 -26 -39 -47 0
-8 -26 -40 -46 0
-8 -26 -40 -50 0
-8 -26 -41 -47 0
-8 -26 -42 -48 0
-8 -26 -43 -49 0
-8 -26 -44 -50 0
-8 -27 -29 -34 0
-8 -27 -32 -35 0
-8 -27 -35 -36 0
-8 -27 -37 -38 0
-8 -27 -38 -41 0
-8 -27 -39 -44 0
-8 -27 -40 -47 0
-8 -27 -41 -50 0
-8 -28 -29 -35 0
-8 -28 -32 -36 0
-8 -28 -35 -37 0
-8 -28 -39 -41 0
-8 -28 -40 -44 0
-8 -28 -41 -47 0
-8 -28 -42 -50 0
-8 -29 -30 -37 0
-8 -29 -31 -38 0
-8 -29 -32 -37 0
-8 -29 -32 -39 0
-8 -29 -33 -40 0
-8 -29 -34 -41 0
-8 -29 -35 -38 0
-8 -29 -35 -42 0
-8 -29 -36 -43 0
-8 -29 -37 -44 0
-8 -29 -38 -39 0
-8 -29 -38 -45 0
-8 -29 -39 -46 0
-8 -29 -40 -41 0
-8 -29 -40 -47 0
-8 -29 -41 -44 0
-8 -29 -41 -48 0
-8 -29 -42 -47 0
-8 -29 -42 -49 0
-8 -29 -43 -50 0
-8 -30 -32 -38 0
-8 -30 -35 -39 0
-8 -30 -38 -40 0
-8 -30 -42 -44 0
-8 -30 -43 -47 0
-8 -30 -44 -50 0
-8 -31 -32 -39 0
-8 -31 -35 -40 0
-8 -31 -38 -41 0
-8 -31 -41 -42 0
-8 -31 -43 -44 0
-8 -31 -44 -47 0
-8 -31 -45 -50 0
-8 -32 -33 -41 0
-8 -32 -34 -42 0
-8 -32 -35 -41 0
-8 -32 -35 -43 0
-8 -32 -36 -44 0
-8 -32 -37 -45 0
-8 -32 -38 -42 0
-8 -32 -38 -46 0
-8 -32 -39 -47 0
-8 -32 -40 -48 0
-8 -32 -41 -43 0
-8 -32 -41 -49 0
-8 -32 -42 -50 0
-8 -32 -45 -47 0
-8 -32 -46 -50 0
-8 -33 -35 -42 0
-8 -33 -38 -43 0
-8 -33 -41 -44 0
-8 -33 -44 -45 0
-8 -33 -46 -47 0
-8 -33 -47 -50 0
-8 -34 -35 -43 0
-8 -34 -38 -44 0
-8 -34 -41 -45 0
-8 -34 -44 -46 0
-8 -34 -48 -50 0
-8 -35 -36 -45 0
-8 -35 -37 -46 0
-8 -35 -38 -45 0
-8 -35 -38 -47 0
-8 -35 -39 -48 0
-8 -35 -40 -49 0
-8 -35 -41 -46 0
-8 -35 -41 -50 0
-8 -35 -44 -47 0
-8 -35 -47 -48 0
-8 -35 -49 -50 0
-8 -36 -38 -46 0
-8 -36 -41 -47 0
-8 -36 -44 -48 0
-8 -36 -47 -49 0
-8 -37 -38 -47 0
-8 -37 -41 -48 0
-8 -37 -44 -49 0
-8 -37 -47 -50 0
-8 -38 -39 -49 0
-8 -38 -40 -50 0
-8 -38 -41 -49 0
-8 -38 -44 -50 0
-8 -39 -41 -50 0
-9 -10 -11 -12 0
-9 -10 -11 -14 0
-9 -10 -11 -16 0
-9 -10 -12 -15 0
-9 -10 -12 -19 0
-9 -10 -13 -16 0
-9 -10 -13 -18 0
-9 -10 -13 -22 0
-9 -10 -14 -17 0
-9 -10 -14 -21 0
-9 -10 -14 -25 0
-9 -10 -15 -18 0
-9 -10 -15 -24 0
-9 -10 -15 -28 0
-9 -10 -16 -19 0
-9 -10 -16 -27 0
-9 -10 -16 -31 0
-9 -10 -17 -20 0
-9 -10 -17 -30 0
-9 -10 -17 -34 0
-9 -10 -18 -21 0
-9 -10 -18 -33 0
-9 -10 -18 -37 0
-9 -10 -19 -22 0
-9 -10 -19 -36 0
-9 -10 -19 -40 0
-9 -10 -20 -23 0
-9 -10 -20 -39 0
-9 -10 -20 -43 0
-9 -10 -21 -24 0
-9 -10 -21 -42 0
-9 -10 -21 -46 0
-9 -10 -22 -25 0
-9 -10 -22 -45 0
-9 -10 -22 -49 0
-9 -10 -23 -26 0
-9 -10 -23 -48 0
-9 -10 -24 -27 0
-9 -10 -25 -28 0
-9 -10 -26 -29 0
-9 -10 -27 -30 0
-9 -10 -28 -31 0
-9 -10 -29 -32 0
-9 -10 -30 -33 0
-9 -10 -31 -34 0
-9 -10 -32 -35 0
-9 -10 -33 -36 0
-9 -10 -34 -37 0
-9 -10 -35 -38 0
-9 -10 -36 -39 0
-9 -10 -37 -40 0
-9 -10 -38 -41 0
-9 -10 -39 -42 0
-9 -10 -40 -43 0
-9 -10 -41 -44 0
-9 -10 -42 -45 0
-9 -10 -43 -46 0
-9 -10 -44 -47 0
-9 -10 -45 -48 0
-9 -10 -46 -49 0
-9 -10 -47 -50 0
-9 -11 -12 -18 0
-9 -11 -12 -20 0
-9 -11 -13 -15 0
-9 -11 -13 -19 0
-9 -11 -13 -23 0
-9 -11 -14 -18 0
-9 -11 -14 -20 0
-9 -11 -14 -26 0
-9 -11 -15 -21 0
-9 -11 -15 -29 0
-9 -11 -16 -22 0
-9 -11 -16 -24 0
-9 -11 -16 -32 0
-9 -11 -17 -23 0
-9 -11 -17 -27 0
-9 -11 -17 -35 0
-9 -11 -18 -24 0
-9 -11 -18 -30 0
-9 -11 -18 -38 0
-9 -11 -19 -25 0
-9 -11 -19 -33 0
-9 -11 -19 -41 0
-9 -11 -20 -26 0
-9 -11 -20 -36 0
-9 -11 -20 -44 0
-9 -11 -21 -27 0
-9 -11 -21 -39 0
-9 -11 -21 -47 0
-9 -11 -22 -28 0
-9 -11 -22 -42 0
-9 -11 -22 -50 0
-9 -11 -23 -29 0
-9 -11 -23 -45 0
-9 -11 -24 -30 0
-9 -11 -24 -48 0
-9 -11 -25 -31 0
-9 -11 -26 -32 0
-9 -11 -27 -33 0
-9 -11 -28 -34 0
-9 -11 -29 -35 0
-9 -11 -30 -36 0
-9 -11 -31 -37 0
-9 -11 -32 -38 0
-9 -11 -33 -39 0
-9 -11 -34 -40 0
-9 -11 -35 -41 0
-9 -11 -36 -42 0
-9 -11 -37 -43 0
-9 -11 -38 -44 0
-9 -11 -39 -45 0
-9 -11 -40 -46 0
-9 -11 -41 -47 0
-9 -11 -42 -48 0
-9 -11 -43 -49 0
-9 -11 -44 -50 0
-9 -12 -13 -14 0
-9 -12 -13 -22 0
-9 -12 -13 -24 0
-9 -12 -14 -15 0
-9 -12 -14 -23 0
-9 -12 -14 -27 0
-9 -12 -15 -16 0
-9 -12 -15 -18 0
-9 -12 -15 -24 0
-9 -12 -15 -30 0
-9 -12 -16 -17 0
-9 -12 -16 -21 0
-9 -12 -16 -25 0
-9 -12 -16 -33 0
-9 -12 -17 -18 0
-9 -12 -17 -24 0
-9 -12 -17 -26 0
-9 -12 -17 -36 0
-9 -12 -18 -19 0
-9 -12 -18 -27 0
-9 -12 -18 -39 0
-9 -12 -19 -20 0
-9 -12 -19 -28 0
-9 -12 -19 -30 0
-9 -12 -19 -42 0
-9 -12 -20 -21 0
-9 -12 -20 -29 0
-9 -12 -20 -33 0
-9 -12 -20 -45 0
-9 -12 -21 -22 0
-9 -12 -21 -30 0
-9 -12 -21 -36 0
-9 -12 -21 -48 0
-9 -12 -22 -23 0
-9 -12 -22 -31 0
-9 -12 -22 -39 0
-9 -12 -23 -24 0
-9 -12 -23 -32 0
-9 -12 -23 -42 0
-9 -12 -24 -25 0
-9 -12 -24 -33 0
-9 -12 -24 -45 0
-9 -12 -25 -26 0
-9 -12 -25 -34 0
-9 -12 -25 -48 0
-9 -12 -26 -27 0
-9 -12 -26 -35 0
-9 -12 -27 -28 0
-9 -12 -27 -36 0
-9 -12 -28 -29 0
-9 -12 -28 -37 0
-9 -12 -29 -30 0
-9 -12 -29 -38 0
-9 -12 -30 -31 0
-9 -12 -30 -39 0
-9 -12 -31 -32 0
-9 -12 -31 -40 0
-9 -12 -32 -33 0
-9 -12 -32 -41 0
-9 -12 -33 -34 0
-9 -12 -33 -42 0
-9 -12 -34 -35 0
-9 -12 -34 -43 0
-9 -12 -35 -36 0
-9 -12 -35 -44 0
-9 -12 -36 -37 0
-9 -12 -36 -45 0
-9 -12 -37 -38 0
-9 -12 -37 -46 0
-9 -12 -38 -39 0
-9 -12 -38 -47 0
-9 -12 -39 -40 0
-9 -12 -39 -48 0
-9 -12 -40 -41 0
-9 -12 -40 -49 0
-9 -12 -41 -42 0
-9 -12 -41 -50 0
-9 -12 -42 -43 0
-9 -12 -43 -44 0
-9 -12 -44 -45 0
-9 -12 -45 -46 0
-9 -12 -46 -47 0
-9 -12 -47 -48 0
-9 -12 -48 -49 0
-9 -12 -49 -50 0
-9 -13 -14 -26 0
-9 -13 -14 -28 0
-9 -13 -15 -27 0
-9 -13 -15 -31 0
-9 -13 -16 -18 0
-9 -13 -16 -28 0
-9 -13 -16 -34 0
-9 -13 -17 -21 0
-9 -13 -17 -29 0
-9 -13 -17 -37 0
-9 -13 -18 -24 0
-9 -13 -18 -30 0
-9 -13 -18 -40 0
-9 -13 -19 -27 0
-9 -13 -19 -31 0
-9 -13 -19 -43 0
-9 -13 -20 -30 0
-9 -13 -20 -32 0
-9 -13 -20 -46 0
-9 -13 -21 -33 0
-9 -13 -21 -49 0
-9 -13 -22 -34 0
-9 -13 -22 -36 0
-9 -13 -23 -35 0
-9 -13 -23 -39 0
-9 -13 -24 -36 0
-9 -13 -24 -42 0
-9 -13 -25 -37 0
-9 -13 -25 -45 0
-9 -13 -26 -38 0
-9 -13 -26 -48 0
-9 -13 -27 -39 0
-9 -13 -28 -40 0
-9 -13 -29 -41 0
-9 -13 -30 -42 0
-9 -13 -31 -43 0
-9 -13 -32 -44 0
-9 -13 -33 -45 0
-9 -13 -34 -46 0
-9 -13 -35 -47 0
-9 -13 -36 -48 0
-9 -13 -37 -49 0
-9 -13 -38 -50 0
-9 -14 -15 -16 0
-9 -14 -15 -30 0
-9 -14 -15 -32 0
-9 -14 -16 -31 0
-9 -14 -16 -35 0
-9 -14 -17 -18 0
-9 -14 -17 -32 0
-9 -14 -17 -38 0
-9 -14 -18 -21 0
-9 -14 -18 -33 0
-9 -14 -18 -41 0
-9 -14 -19 -24 0
-9 -14 -19 -34 0
-9 -14 -19 -44 0
-9 -14 -20 -27 0
-9 -14 -20 -35 0
-9 -14 -20 -47 0
-9 -14 -21 -30 0
-9 -14 -21 -36 0
-9 -14 -21 -50 0
-9 -14 -22 -33 0
-9 -14 -22 -37 0
-9 -14 -23 -36 0
-9 -14 -23 -38 0
-9 -14 -24 -39 0
-9 -14 -25 -40 0
-9 -14 -25 -42 0
-9 -14 -26 -41 0
-9 -14 -26 -45 0
-9 -14 -27 -42 0
-9 -14 -27 -48 0
-9 -14 -28 -43 0
-9 -14 -29 -44 0
-9 -14 -30 -45 0
-9 -14 -31 -46 0
-9 -14 -32 -47 0
-9 -14 -33 -48 0
-9 -14 -34 -49 0
-9 -14 -35 -50 0
-9 -15 -16 -18 0
-9 -15 -16 -34 0
-9 -15 -16 -36 0
-9 -15 -17 -19 0
-9 -15 -17 -35 0
-9 -15 -17 -39 0
-9 -15 -18 -20 0
-9 -15 -18 -36 0
-9 -15 -18 -42 0
-9 -15 -19 -21 0
-9 -15 -19 -37 0
-9 -15 -19 -45 0
-9 -15 -20 -22 0
-9 -15 -20 -24 0
-9 -15 -20 -38 0
-9 -15 -20 -48 0
-9 -15 -21 -23 0
-9 -15 -21 -27 0
-9 -15 -21 -39 0
-9 -15 -22 -24 0
-9 -15 -22 -30 0
-9 -15 -22 -40 0
-9 -15 -23 -25 0
-9 -15 -23 -33 0
-9 -15 -23 -41 0
-9 -15 -24 -26 0
-9 -15 -24 -36 0
-9 -15 -24 -42 0
-9 -15 -25 -27 0
-9 -15 -25 -39 0
-9 -15 -25 -43 0
-9 -15 -26 -28 0
-9 -15 -26 -42 0
-9 -15 -26 -44 0
-9 -15 -27 -29 0
-9 -15 -27 -45 0
-9 -15 -28 -30 0
-9 -15 -28 -46 0
-9 -15 -28 -48 0
-9 -15 -29 -31 0
-9 -15 -29 -47 0
-9 -15 -30 -32 0
-9 -15 -30 -48 0
-9 -15 -31 -33 0
-9 -15 -31 -49 0
-9 -15 -32 -34 0
-9 -15 -32 -50 0
-9 -15 -33 -35 0
-9 -15 -34 -36 0
-9 -15 -35 -37 0
-9 -15 -36 -38 0
-9 -15 -37 -39 0
-9 -15 -38 -40 0
-9 -15 -39 -41 0
-9 -15 -40 -42 0
-9 -15 -41 -43 0
-9 -15 -42 -44 0
-9 -15 -43 -45 0
-9 -15 -44 -46 0
-9 -15 -45 -47 0
-9 -15 -46 -48 0
-9 -15 -47 -49 0
-9 -15 -48 -50 0
-9 -16 -17 -38 0
-9 -16 -17 -40 0
-9 -16 -18 -19 0
-9 -16 -18 -39 0
-9 -16 -18 -43 0
-9 -16 -19 -40 0
-9 -16 -19 -46 0
-9 -16 -20 -21 0
-9 -16 -20 -41 0
-9 -16 -20 -49 0
-9 -16 -21 -24 0
-9 -16 -21 -42 0
-9 -16 -22 -27 0
-9 -16 -22 -43 0
-9 -16 -23 -30 0
-9 -16 -23 -44 0
-9 -16 -24 -33 0
-9 -16 -24 -45 0
-9 -16 -25 -36 0
-9 -16 -25 -46 0
-9 -16 -26 -39 0
-9 -16 -26 -47 0
-9 -16 -27 -42 0
-9 -16 -27 -48 0
-9 -16 -28 -45 0
-9 -16 -28 -49 0
-9 -16 -29 -48 0
-9 -16 -29 -50 0
-9 -17 -18 -20 0
-9 -17 -18 -42 0
-9 -17 -18 -44 0
-9 -17 -19 -43 0
-9 -17 -19 -47 0
-9 -17 -20 -44 0
-9 -17 -20 -50 0
-9 -17 -21 -45 0
-9 -17 -22 -24 0
-9 -17 -22 -46 0
-9 -17 -23 -27 0
-9 -17 -23 -47 0
-9 -17 -24 -30 0
-9 -17 -24 -48 0
-9 -17 -25 -33 0
-9 -17 -25 -49 0
-9 -17 -26 -36 0
-9 -17 -26 -50 0
-9 -17 -27 -39 0
-9 -17 -28 -42 0
-9 -17 -29 -45 0
-9 -17 -30 -48 0
-9 -18 -19 -22 0
-9 -18 -19 -46 0
-9 -18 -19 -48 0
-9 -18 -20 -23 0
-9 -18 -20 -47 0
-9 -18 -21 -22 0
-9 -18 -21 -24 0
-9 -18 -21 -48 0
-9 -18 -22 -25 0
-9 -18 -22 -49 0
-9 -18 -23 -24 0
-9 -18 -23 -26 0
-9 -18 -23 -50 0
-9 -18 -24 -27 0
-9 -18 -25 -28 0
-9 -18 -25 -30 0
-9 -18 -26 -29 0
-9 -18 -26 -33 0
-9 -18 -27 -30 0
-9 -18 -27 -36 0
-9 -18 -28 -31 0
-9 -18 -28 -39 0
-9 -18 -29 -32 0
-9 -18 -29 -42 0
-9 -18 -30 -33 0
-9 -18 -30 -45 0
-9 -18 -31 -34 0
-9 -18 -31 -48 0
-9 -18 -32 -35 0
-9 -18 -33 -36 0
-9 -18 -34 -37 0
-9 -18 -35 -38 0
-9 -18 -36 -39 0
-9 -18 -37 -40 0
-9 -18 -38 -41 0
-9 -18 -39 -42 0
-9 -18 -40 -43 0
-9 -18 -41 -44 0
-9 -18 -42 -45 0
-9 -18 -43 -46 0
-9 -18 -44 -47 0
-9 -18 -45 -48 0
-9 -18 -46 -49 0
-9 -18 -47 -50 0
-9 -19 -20 -50 0
-9 -19 -21 -23 0
-9 -19 -25 -27 0
-9 -19 -26 -30 0
-9 -19 -27 -33 0
-9 -19 -28 -36 0
-9 -19 -29 -39 0
-9 -19 -30 -42 0
-9 -19 -31 -45 0
-9 -19 -32 -48 0
-9 -20 -21 -24 0
-9 -20 -24 -25 0
-9 -20 -26 -27 0
-9 -20 -27 -30 0
-9 -20 -28 -33 0
-9 -20 -29 -36 0
-9 -20 -30 -39 0
-9 -20 -31 -42 0
-9 -20 -32 -45 0
-9 -20 -33 -48 0
-9 -21 -22 -26 0
-9 -21 -23 -27 0
-9 -21 -24 -26 0
-9 -21 -24 -28 0
-9 -21 -25 -29 0
-9 -21 -26 -30 0
-9 -21 -27 -31 0
-9 -21 -28 -30 0
-9 -21 -28 -32 0
-9 -21 -29 -33 0
-9 -21 -30 -34 0
-9 -21 -30 -36 0
-9 -21 -31 -35 0
-9 -21 -31 -39 0
-9 -21 -32 -36 0
-9 -21 -32 -42 0
-9 -21 -33 -37 0
-9 -21 -33 -45 0
-9 -21 -34 -38 0
-9 -21 -34 -48 0
-9 -21 -35 -39 0
-9 -21 -36 -40 0
-9 -21 -37 -41 0
-9 -21 -38 -42 0
-9 -21 -39 -43 0
-9 -21 -40 -44 0
-9 -21 -41 -45 0
-9 -21 -42 -46 0
-9 -21 -43 -47 0
-9 -21 -44 -48 0
-9 -21 -45 -49 0
-9 -21 -46 -50 0
-9 -22 -24 -27 0
-9 -22 -27 -28 0
-9 -22 -29 -30 0
-9 -22 -30 -33 0
-9 -22 -31 -36 0
-9 -22 -32 -39 0
-9 -22 -33 -42 0
-9 -22 -34 -45 0
-9 -22 -35 -48 0
-9 -23 -24 -28 0
-9 -23 -27 -29 0
-9 -23 -31 -33 0
-9 -23 -32 -36 0
-9 -23 -33 -39 0
-9 -23 -34 -42 0
-9 -23 -35 -45 0
-9 -23 -36 -48 0
-9 -24 -25 -30 0
-9 -24 -26 -31 0
-9 -24 -27 -30 0
-9 -24 -27 -32 0
-9 -24 -28 -33 0
-9 -24 -29 -34 0
-9 -24 -30 -31 0
-9 -24 -30 -35 0
-9 -24 -31 -36 0
-9 -24 -32 -33 0
-9 -24 -32 -37 0
-9 -24 -33 -36 0
-9 -24 -33 -38 0
-9 -24 -34 -39 0
-9 -24 -35 -40 0
-9 -24 -35 -42 0
-9 -24 -36 -41 0
-9 -24 -36 -45 0
-9 -24 -37 -42 0
-9 -24 -37 -48 0
-9 -24 -38 -43 0
-9 -24 -39 -44 0
-9 -24 -40 -45 0
-9 -24 -41 -46 0
-9 -24 -42 -47 0
-9 -24 -43 -48 0
-9 -24 -44 -49 0
-9 -24 -45 -50 0
-9 -25 -27 -31 0
-9 -25 -30 -32 0
-9 -25 -34 -36 0
-9 -25 -35 -39 0
-9 -25 -36 -42 0
-9 -25 -37 -45 0
-9 -25 -38 -48 0
-9 -26 -27 -32 0
-9 -26 -30 -33 0
-9 -26 -33 -34 0
-9 -26 -35 -36 0
-9 -26 -36 -39 0
-9 -26 -37 -42 0
-9 -26 -38 -45 0
-9 -26 -39 -48 0
-9 -27 -28 -34 0
-9 -27 -29 -35 0
-9 -27 -30 -34 0
-9 -27 -30 -36 0
-9 -27 -31 -37 0
-9 -27 -32 -38 0
-9 -27 -33 -35 0
-9 -27 -33 -39 0
-9 -27 -34 -40 0
-9 -27 -35 -41 0
-9 -27 -36 -42 0
-9 -27 -37 -39 0
-9 -27 -37 -43 0
-9 -27 -38 -42 0
-9 -27 -38 -44 0
-9 -27 -39 -45 0
-9 -27 -40 -46 0
-9 -27 -40 -48 0
-9 -27 -41 -47 0
-9 -27 -42 -48 0
-9 -27 -43 -49 0
-9 -27 -44 -50 0
-9 -28 -30 -35 0
-9 -28 -33 -36 0
-9 -28 -36 -37 0
-9 -28 -38 -39 0
-9 -28 -39 -42 0
-9 -28 -40 -45 0
-9 -28 -41 -48 0
-9 -29 -30 -36 0
-9 -29 -33 -37 0
-9 -29 -36 -38 0
-9 -29 -40 -42 0
-9 -29 -41 -45 0
-9 -29 -42 -48 0
-9 -30 -31 -38 0
-9 -30 -32 -39 0
-9 -30 -33 -38 0
-9 -30 -33 -40 0
-9 -30 -34 -41 0
-9 -30 -35 -42 0
-9 -30 -36 -39 0
-9 -30 -36 -43 0
-9 -30 -37 -44 0
-9 -30 -38 -45 0
-9 -30 -39 -40 0
-9 -30 -39 -46 0
-9 -30 -40 -47 0
-9 -30 -41 -42 0
-9 -30 -41 -48 0
-9 -30 -42 -45 0
-9 -30 -42 -49 0
-9 -30 -43 -48 0
-9 -30 -43 -50 0
-9 -31 -33 -39 0
-9 -31 -36 -40 0
-9 -31 -39 -41 0
-9 -31 -43 -45 0
-9 -31 -44 -48 0
-9 -32 -33 -40 0
-9 -32 -36 -41 0
-9 -32 -39 -42 0
-9 -32 -42 -43 0
-9 -32 -44 -45 0
-9 -32 -45 -48 0
-9 -33 -34 -42 0
-9 -33 -35 -43 0
-9 -33 -36 -42 0
-9 -33 -36 -44 0
-9 -33 -37 -45 0
-9 -33 -38 -46 0
-9 -33 -39 -43 0
-9 -33 -39 -47 0
-9 -33 -40 -48 0
-9 -33 -41 -49 0
-9 -33 -42 -44 0
-9 -33 -42 -50 0
-9 -33 -46 -48 0
-9 -34 -36 -43 0
-9 -34 -39 -44 0
-9 -34 -42 -45 0
-9 -34 -45 -46 0
-9 -34 -47 -48 0
-9 -35 -36 -44 0
-9 -35 -39 -45 0
-9 -35 -42 -46 0
-9 -35 -45 -47 0
-9 -36 -37 -46 0
-9 -36 -38 -47 0
-9 -36 -39 -46 0
-9 -36 -39 -48 0
-9 -36 -40 -49 0
-9 -36 -41 -50 0
-9 -36 -42 -47 0
-9 -36 -45 -48 0
-9 -36 -48 -49 0
-9 -37 -39 -47 0
-9 -37 -42 -48 0
-9 -37 -45 -49 0
-9 -37 -48 -50 0
-9 -38 -39 -48 0
-9 -38 -42 -49 0
-9 -38 -45 -50 0
-9 -39 -40 -50 0
-9 -39 -42 -50 0
-10 -11 -12 -13 0
-10 -11 -12 -15 0
-10 -11 -12 -17 0
-10 -11 -13 -16 0
-10 -11 -13 -20 0
-10 -11 -14 -17 0
-10 -11 -14 -19 0
-10 -11 -14 -23 0
-10 -11 -15 -18 0
-10 -11 -15 -22 0
-10 -11 -15 -26 0
-10 -11 -16 -19 0
-10 -11 -16 -25 0
-10 -11 -16 -29 0
-10 -11 -17 -20 0
-10 -11 -17 -28 0
-10 -11 -17 -32 0
-10 -11 -18 -21 0
-10 -11 -18 -31 0
-10 -11 -18 -35 0
-10 -11 -19 -22 0
-10 -11 -19 -34 0
-10 -11 -19 -38 0
-10 -11 -20 -23 0
-10 -11 -20 -37 0
-10 -11 -20 -41 0
-10 -11 -21 -24 0
-10 -11 -21 -40 0
-10 -11 -21 -44 0
-10 -11 -22 -25 0
-10 -11 -22 -43 0
-10 -11 -22 -47 0
-10 -11 -23 -26 0
-10 -11 -23 -46 0
-10 -11 -23 -50 0
-10 -11 -24 -27 0
-10 -11 -24 -49 0
-10 -11 -25 -28 0
-10 -11 -26 -29 0
-10 -11 -27 -30 0
-10 -11 -28 -31 0
-10 -11 -29 -32 0
-10 -11 -30 -33 0
-10 -11 -31 -34 0
-10 -11 -32 -35 0
-10 -11 -33 -36 0
-10 -11 -34 -37 0
-10 -11 -35 -38 0
-10 -11 -36 -39 0
-10 -11 -37 -40 0
-10 -11 -38 -41 0
-10 -11 -39 -42 0
-10 -11 -40 -43 0
-10 -11 -41 -44 0
-10 -11 -42 -45 0
-10 -11 -43 -46 0
-10 -11 -44 -47 0
-10 -11 -45 -48 0
-10 -11 -46 -49 0
-10 -11 -47 -50 0
-10 -12 -13 -19 0
-10 -12 -13 -21 0
-10 -12 -14 -16 0
-10 -12 -14 -20 0
-10 -12 -14 -24 0
-10 -12 -15 -19 0
-10 -12 -15 -21 0
-10 -12 -15 -27 0
-10 -12 -16 -22 0
-10 -12 -16 -30 0
-10 -12 -17 -23 0
-10 -12 -17 -25 0
-10 -12 -17 -33 0
-10 -12 -18 -24 0
-10 -12 -18 -28 0
-10 -12 -18 -36 0
-10 -12 -19 -25 0
-10 -12 -19 -31 0
-10 -12 -19 -39 0
-10 -12 -20 -26 0
-10 -12 -20 -34 0
-10 -12 -20 -42 0
-10 -12 -21 -27 0
-10 -12 -21 -37 0
-10 -12 -21 -45 0
-10 -12 -22 -28 0
-10 -12 -22 -40 0
-10 -12 -22 -48 0
-10 -12 -23 -29 0
-10 -12 -23 -43 0
-10 -12 -24 -30 0
-10 -12 -24 -46 0
-10 -12 -25 -31 0
-10 -12 -25 -49 0
-10 -12 -26 -32 0
-10 -12 -27 -33 0
-10 -12 -28 -34 0
-10 -12 -29 -35 0
-10 -12 -30 -36 0
-10 -12 -31 -37 0
-10 -12 -32 -38 0
-10 -12 -33 -39 0
-10 -12 -34 -40 0
-10 -12 -35 -41 0
-10 -12 -36 -42 0
-10 -12 -37 -43 0
-10 -12 -38 -44 0
-10 -12 -39 -45 0
-10 -12 -40 -46 0
-10 -12 -41 -47 0
-10 -12 -42 -48 0
-10 -12 -43 -49 0
-10 -12 -44 -50 0
-10 -13 -14 -15 0
-10 -13 -14 -23 0
-10 -13 -14 -25 0
-10 -13 -15 -16 0
-10 -13 -15 -24 0
-10 -13 -15 -28 0
-10 -13 -16 -17 0
-10 -13 -16 -19 0
-10 -13 -16 -25 0
-10 -13 -16 -31 0
-10 -13 -17 -18 0
-10 -13 -17 -22 0
-10 -13 -17 -26 0
-10 -13 -17 -34 0
-10 -13 -18 -19 0
-10 -13 -18 -25 0
-10 -13 -18 -27 0
-10 -13 -18 -37 0
-10 -13 -19 -20 0
-10 -13 -19 -28 0
-10 -13 -19 -40 0
-10 -13 -20 -21 0
-10 -13 -20 -29 0
-10 -13 -20 -31 0
-10 -13 -20 -43 0
-10 -13 -21 -22 0
-10 -13 -21 -30 0
-10 -13 -21 -34 0
-10 -13 -21 -46 0
-10 -13 -22 -23 0
-10 -13 -22 -31 0
-10 -13 -22 -37 0
-10 -13 -22 -49 0
-10 -13 -23 -24 0
-10 -13 -23 -32 0
-10 -13 -23 -40 0
-10 -13 -24 -25 0
-10 -13 -24 -33 0
-10 -13 -24 -43 0
-10 -13 -25 -26 0
-10 -13 -25 -34 0
-10 -13 -25 -46 0
-10 -13 -26 -27 0
-10 -13 -26 -35 0
-10 -13 -26 -49 0
-10 -13 -27 -28 0
-10 -13 -27 -36 0
-10 -13 -28 -29 0
-10 -13 -28 -37 0
-10 -13 -29 -30 0
-10 -13 -29 -38 0
-10 -13 -30 -31 0
-10 -13 -30 -39 0
-10 -13 -31 -32 0
-10 -13 -31 -40 0
-10 -13 -32 -33 0
-10 -13 -32 -41 0
-10 -13 -33 -34 0
-10 -13 -33 -42 0
-10 -13 -34 -35 0
-10 -13 -34 -43 0
-10 -13 -35 -36 0
-10 -13 -35 -44 0
-10 -13 -36 -37 0
-10 -13 -36 -45 0
-10 -13 -37 -38 0
-10 -13 -37 -46 0
-10 -13 -38 -39 0
-10 -13 -38 -47 0
-10 -13 -39 -40 0
-10 -13 -39 -48 0
-10 -13 -40 -41 0
-10 -13 -40 -49 0
-10 -13 -41 -42 0
-10 -13 -41 -50 0
-10 -13 -42 -43 0
-10 -13 -43 -44 0
-10 -13 -44 -45 0
-10 -13 -45 -46 0
-10 -13 -46 -47 0
-10 -13 -47 -48 0
-10 -13 -48 -49 0
-10 -13 -49 -50 0
-10 -14 -15 -27 0
-10 -14 -15 -29 0
-10 -14 -16 -28 0
-10 -14 -16 -32 0
-10 -14 -17 -19 0
-10 -14 -17 -29 0
-10 -14 -17 -35 0
-10 -14 -18 -22 0
-10 -14 -18 -30 0
-10 -14 -18 -38 0
-10 -14 -19 -25 0
-10 -14 -19 -31 0
-10 -14 -19 -41 0
-10 -14 -20 -28 0
-10 -14 -20 -32 0
-10 -14 -20 -44 0
-10 -14 -21 -31 0
-10 -14 -21 -33 0
-10 -14 -21 -47 0
-10 -14 -22 -34 0
-10 -14 -22 -50 0
-10 -14 -23 -35 0
-10 -14 -23 -37 0
-10 -14 -24 -36 0
-10 -14 -24 -40 0
-10 -14 -25 -37 0
-10 -14 -25 -43 0
-10 -14 -26 -38 0
-10 -14 -26 -46 0
-10 -14 -27 -39 0
-10 -14 -27 -49 0
-10 -14 -28 -40 0
-10 -14 -29 -41 0
-10 -14 -30 -42 0
-10 -14 -31 -43 0
-10 -14 -32 -44 0
-10 -14 -33 -45 0
-10 -14 -34 -46 0
-10 -14 -35 -47 0
-10 -14 -36 -48 0
-10 -14 -37 -49 0
-10 -14 -38 -50 0
-10 -15 -16 -17 0
-10 -15 -16 -31 0
-10 -15 -16 -33 0
-10 -15 -17 -32 0
-10 -15 -17 -36 0
-10 -15 -18 -19 0
-10 -15 -18 -33 0
-10 -15 -18 -39 0
-10 -15 -19 -22 0
-10 -15 -19 -34 0
-10 -15 -19 -42 0
-10 -15 -20 -25 0
-10 -15 -20 -35 0
-10 -15 -20 -45 0
-10 -15 -21 -28 0
-10 -15 -21 -36 0
-10 -15 -21 -48 0
-10 -15 -22 -31 0
-10 -15 -22 -37 0
-10 -15 -23 -34 0
-10 -15 -23 -38 0
-10 -15 -24 -37 0
-10 -15 -24 -39 0
-10 -15 -25 -40 0
-10 -15 -26 -41 0
-10 -15 -26 -43 0
-10 -15 -27 -42 0
-10 -15 -27 -46 0
-10 -15 -28 -43 0
-10 -15 -28 -49 0
-10 -15 -29 -44 0
-10 -15 -30 -45 0
-10 -15 -31 -46 0
-10 -15 -32 -47 0
-10 -15 -33 -48 0
-10 -15 -34 -49 0
-10 -15 -35 -50 0
-10 -16 -17 -19 0
-10 -16 -17 -35 0
-10 -16 -17 -37 0
-10 -16 -18 -20 0
-10 -16 -18 -36 0
-10 -16 -18 -40 0
-10 -16 -19 -21 0
-10 -16 -19 -37 0
-10 -16 -19 -43 0
-10 -16 -20 -22 0
-10 -16 -20 -38 0
-10 -16 -20 -46 0
-10 -16 -21 -23 0
-10 -16 -21 -25 0
-10 -16 -21 -39 0
-10 -16 -21 -49 0
-10 -16 -22 -24 0
-10 -16 -22 -28 0
-10 -16 -22 -40 0
-10 -16 -23 -25 0
-10 -16 -23 -31 0
-10 -16 -23 -41 0
-10 -16 -24 -26 0
-10 -16 -24 -34 0
-10 -16 -24 -42 0
-10 -16 -25 -27 0
-10 -16 -25 -37 0
-10 -16 -25 -43 0
-10 -16 -26 -28 0
-10 -16 -26 -40 0
-10 -16 -26 -44 0
-10 -16 -27 -29 0
-10 -16 -27 -43 0
-10 -16 -27 -45 0
-10 -16 -28 -30 0
-10 -16 -28 -46 0
-10 -16 -29 -31 0
-10 -16 -29 -47 0
-10 -16 -29 -49 0
-10 -16 -30 -32 0
-10 -16 -30 -48 0
-10 -16 -31 -33 0
-10 -16 -31 -49 0
-10 -16 -32 -34 0
-10 -16 -32 -50 0
-10 -16 -33 -35 0
-10 -16 -34 -36 0
-10 -16 -35 -37 0
-10 -16 -36 -38 0
-10 -16 -37 -39 0
-10 -16 -38 -40 0
-10 -16 -39 -41 0
-10 -16 -40 -42 0
-10 -16 -41 -43 0
-10 -16 -42 -44 0
-10 -16 -43 -45 0
-10 -16 -44 -46 0
-10 -16 -45 -47 0
-10 -16 -46 -48 0
-10 -16 -47 -49 0
-10 -16 -48 -50 0
-10 -17 -18 -39 0
-10 -17 -18 -41 0
-10 -17 -19 -20 0
-10 -17 -19 -40 0
-10 -17 -19 -44 0
-10 -17 -20 -41 0
-10 -17 -20 -47 0
-10 -17 -21 -22 0
-10 -17 -21 -42 0
-10 -17 -21 -50 0
-10 -17 -22 -25 0
-10 -17 -22 -43 0
-10 -17 -23 -28 0
-10 -17 -23 -44 0
-10 -17 -24 -31 0
-10 -17 -24 -45 0
-10 -17 -25 -34 0
-10 -17 -25 -46 0
-10 -17 -26 -37 0
-10 -17 -26 -47 0
-10 -17 -27 -40 0
-10 -17 -27 -48 0
-10 -17 -28 -43 0
-10 -17 -28 -49 0
-10 -17 -29 -46 0
-10 -17 -29 -50 0
-10 -17 -30 -49 0
-10 -18 -19 -21 0
-10 -18 -19 -43 0
-10 -18 -19 -45 0
-10 -18 -20 -44 0
-10 -18 -20 -48 0
-10 -18 -21 -45 0
-10 -18 -22 -46 0
-10 -18 -23 -25 0
-10 -18 -23 -47 0
-10 -18 -24 -28 0
-10 -18 -24 -48 0
-10 -18 -25 -31 0
-10 -18 -25 -49 0
-10 -18 -26 -34 0
-10 -18 -26 -50 0
-10 -18 -27 -37 0
-10 -18 -28 -40 0
-10 -18 -29 -43 0
-10 -18 -30 -46 0
-10 -18 -31 -49 0
-10 -19 -20 -23 0
-10 -19 -20 -47 0
-10 -19 -20 -49 0
-10 -19 -21 -24 0
-10 -19 -21 -48 0
-10 -19 -22 -23 0
-10 -19 -22 -25 0
-10 -19 -22 -49 0
-10 -19 -23 -26 0
-10 -19 -23 -50 0
-10 -19 -24 -25 0
-10 -19 -24 -27 0
-10 -19 -25 -28 0
-10 -19 -26 -29 0
-10 -19 -26 -31 0
-10 -19 -27 -30 0
-10 -19 -27 -34 0
-10 -19 -28 -31 0
-10 -19 -28 -37 0
-10 -19 -29 -32 0
-10 -19 -29 -40 0
-10 -19 -30 -33 0
-10 -19 -30 -43 0
-10 -19 -31 -34 0
-10 -19 -31 -46 0
-10 -19 -32 -35 0
-10 -19 -32 -49 0
-10 -19 -33 -36 0
-10 -19 -34 -37 0
-10 -19 -35 -38 0
-10 -19 -36 -39 0
-10 -19 -37 -40 0
-10 -19 -38 -41 0
-10 -19 -39 -42 0
-10 -19 -40 -43 0
-10 -19 -41 -44 0
-10 -19 -42 -45 0
-10 -19 -43 -46 0
-10 -19 -44 -47 0
-10 -19 -45 -48 0
-10 -19 -46 -49 0
-10 -19 -47 -50 0
-10 -20 -22 -24 0
-10 -20 -26 -28 0
-10 -20 -27 -31 0
-10 -20 -28 -34 0
-10 -20 -29 -37 0
-10 -20 -30 -40 0
-10 -20 -31 -43 0
-10 -20 -32 -46 0
-10 -20 -33 -49 0
-10 -21 -22 -25 0
-10 -21 -25 -26 0
-10 -21 -27 -28 0
-10 -21 -28 -31 0
-10 -21 -29 -34 0
-10 -21 -30 -37 0
-10 -21 -31 -40 0
-10 -21 -32 -43 0
-10 -21 -33 -46 0
-10 -21 -34 -49 0
-10 -22 -23 -27 0
-10 -22 -24 -28 0
-10 -22 -25 -27 0
-10 -22 -25 -29 0
-10 -22 -26 -30 0
-10 -22 -27 -31 0
-10 -22 -28 -32 0
-10 -22 -29 -31 0
-10 -22 -29 -33 0
-10 -22 -30 -34 0
-10 -22 -31 -35 0
-10 -22 -31 -37 0
-10 -22 -32 -36 0
-10 -22 -32 -40 0
-10 -22 -33 -37 0
-10 -22 -33 -43 0
-10 -22 -34 -38 0
-10 -22 -34 -46 0
-10 -22 -35 -39 0
-10 -22 -35 -49 0
-10 -22 -36 -40 0
-10 -22 -37 -41 0
-10 -22 -38 -42 0
-10 -22 -39 -43 0
-10 -22 -40 -44 0
-10 -22 -41 -45 0
-10 -22 -42 -46 0
-10 -22 -43 -47 0
-10 -22 -44 -48 0
-10 -22 -45 -49 0
-10 -22 -46 -50 0
-10 -23 -25 -28 0
-10 -23 -28 -29 0
-10 -23 -30 -31 0
-10 -23 -31 -34 0
-10 -23 -32 -37 0
-10 -23 -33 -40 0
-10 -23 -34 -43 0
-10 -23 -35 -46 0
-10 -23 -36 -49 0
-10 -24 -25 -29 0
-10 -24 -28 -30 0
-10 -24 -32 -34 0
-10 -24 -33 -37 0
-10 -24 -34 -40 0
-10 -24 -35 -43 0
-10 -24 -36 -46 0
-10 -24 -37 -49 0
-10 -25 -26 -31 0
-10 -25 -27 -32 0
-10 -25 -28 -31 0
-10 -25 -28 -33 0
-10 -25 -29 -34 0
-10 -25 -30 -35 0
-10 -25 -31 -32 0
-10 -25 -31 -36 0
-10 -25 -32 -37 0
-10 -25 -33 -34 0
-10 -25 -33 -38 0
-10 -25 -34 -37 0
-10 -25 -34 -39 0
-10 -25 -35 -40 0
-10 -25 -36 -41 0
-10 -25 -36 -43 0
-10 -25 -37 -42 0
-10 -25 -37 -46 0
-10 -25 -38 -43 0
-10 -25 -38 -49 0
-10 -25 -39 -44 0
-10 -25 -40 -45 0
-10 -25 -41 -46 0
-10 -25 -42 -47 0
-10 -25 -43 -48 0
-10 -25 -44 -49 0
-10 -25 -45 -50 0
-10 -26 -28 -32 0
-10 -26 -31 -33 0
-10 -26 -35 -37 0
-10 -26 -36 -40 0
-10 -26 -37 -43 0
-10 -26 -38 -46 0
-10 -26 -39 -49 0
-10 -27 -28 -33 0
-10 -27 -31 -34 0
-10 -27 -34 -35 0
-10 -27 -36 -37 0
-10 -27 -37 -40 0
-10 -27 -38 -43 0
-10 -27 -39 -46 0
-10 -27 -40 -49 0
-10 -28 -29 -35 0
-10 -28 -30 -36 0
-10 -28 -31 -35 0
-10 -28 -31 -37 0
-10 -28 -32 -38 0
-10 -28 -33 -39 0
-10 -28 -34 -36 0
-10 -28 -34 -40 0
-10 -28 -35 -41 0
-10 -28 -36 -42 0
-10 -28 -37 -43 0
-10 -28 -38 -40 0
-10 -28 -38 -44 0
-10 -28 -39 -43 0
-10 -28 -39 -45 0
-10 -28 -40 -46 0
-10 -28 -41 -47 0
-10 -28 -41 -49 0
-10 -28 -42 -48 0
-10 -28 -43 -49 0
-10 -28 -44 -50 0
-10 -29 -31 -36 0
-10 -29 -34 -37 0
-10 -29 -37 -38 0
-10 -29 -39 -40 0
-10 -29 -40 -43 0
-10 -29 -41 -46 0
-10 -29 -42 -49 0
-10 -30 -31 -37 0
-10 -30 -34 -38 0
-10 -30 -37 -39 0
-10 -30 -41 -43 0
-10 -30 -42 -46 0
-10 -30 -43 -49 0
-10 -31 -32 -39 0
-10 -31 -33 -40 0
-10 -31 -34 -39 0
-10 -31 -34 -41 0
-10 -31 -35 -42 0
-10 -31 -36 -43 0
-10 -31 -37 -40 0
-10 -31 -37 -44 0
-10 -31 -38 -45 0
-10 -31 -39 -46 0
-10 -31 -40 -41 0
-10 -31 -40 -47 0
-10 -31 -41 -48 0
-10 -31 -42 -43 0
-10 -31 -42 -49 0
-10 -31 -43 -46 0
-10 -31 -43 -50 0
-10 -31 -44 -49 0
-10 -32 -34 -40 0
-10 -32 -37 -41 0
-10 -32 -40 -42 0
-10 -32 -44 -46 0
-10 -32 -45 -49 0
-10 -33 -34 -41 0
-10 -33 -37 -42 0
-10 -33 -40 -43 0
-10 -33 -43 -44 0
-10 -33 -45 -46 0
-10 -33 -46 -49 0
-10 -34 -35 -43 0
-10 -34 -36 -44 0
-10 -34 -37 -43 0
-10 -34 -37 -45 0
-10 -34 -38 -46 0
-10 -34 -39 -47 0
-10 -34 -40 -44 0
-10 -34 -40 -48 0
-10 -34 -41 -49 0
-10 -34 -42 -50 0
-10 -34 -43 -45 0
-10 -34 -47 -49 0
-10 -35 -37 -44 0
-10 -35 -40 -45 0
-10 -35 -43 -46 0
-10 -35 -46 -47 0
-10 -35 -48 -49 0
-10 -36 -37 -45 0
-10 -36 -40 -46 0
-10 -36 -43 -47 0
-10 -36 -46 -48 0
-10 -37 -38 -47 0
-10 -37 -39 -48 0
-10 -37 -40 -47 0
-10 -37 -40 -49 0
-10 -37 -41 -50 0
-10 -37 -43 -48 0
-10 -37 -46 -49 0
-10 -37 -49 -50 0
-10 -38 -40 -48 0
-10 -38 -43 -49 0
-10 -38 -46 -50 0
-10 -39 -40 -49 0
-10 -39 -43 -50 0
-11 -12 -13 -14 0
-11 -12 -13 -16 0
-11 -12 -13 -18 0
-11 -12 -14 -17 0
-11 -12 -14 -21 0
-11 -12 -15 -18 0
-11 -12 -15 -20 0
-11 -12 -15 -24 0
-11 -12 -16 -19 0
-11 -12 -16 -23 0
-11 -12 -16 -27 0
-11 -12 -17 -20 0
-11 -12 -17 -26 0
-11 -12 -17 -30 0
-11 -12 -18 -21 0
-11 -12 -18 -29 0
-11 -12 -18 -33 0
-11 -12 -19 -22 0
-11 -12 -19 -32 0
-11 -12 -19 -36 0
-11 -12 -20 -23 0
-11 -12 -20 -35 0
-11 -12 -20 -39 0
-11 -12 -21 -24 0
-11 -12 -21 -38 0
-11 -12 -21 -42 0
-11 -12 -22 -25 0
-11 -12 -22 -41 0
-11 -12 -22 -45 0
-11 -12 -23 -26 0
-11 -12 -23 -44 0
-11 -12 -23 -48 0
-11 -12 -24 -27 0
-11 -12 -24 -47 0
-11 -12 -25 -28 0
-11 -12 -25 -50 0
-11 -12 -26 -29 0
-11 -12 -27 -30 0
-11 -12 -28 -31 0
-11 -12 -29 -32 0
-11 -12 -30 -33 0
-11 -12 -31 -34 0
-11 -12 -32 -35 0
-11 -12 -33 -36 0
-11 -12 -34 -37 0
-11 -12 -35 -38 0
-11 -12 -36 -39 0
-11 -12 -37 -40 0
-11 -12 -38 -41 0
-11 -12 -39 -42 0
-11 -12 -40 -43 0
-11 -12 -41 -44 0
-11 -12 -42 -45 0
-11 -12 -43 -46 0
-11 -12 -44 -47 0
-11 -12 -45 -48 0
-11 -12 -46 -49 0
-11 -12 -47 -50 0
-11 -13 -14 -20 0
-11 -13 -14 -22 0
-11 -13 -15 -17 0
-11 -13 -15 -21 0
-11 -13 -15 -25 0
-11 -13 -16 -20 0
-11 -13 -16 -22 0
-11 -13 -16 -28 0
-11 -13 -17 -23 0
-11 -13 -17 -31 0
-11 -13 -18 -24 0
-11 -13 -18 -26 0
-11 -13 -18 -34 0
-11 -13 -19 -25 0
-11 -13 -19 -29 0
-11 -13 -19 -37 0
-11 -13 -20 -26 0
-11 -13 -20 -32 0
-11 -13 -20 -40 0
-11 -13 -21 -27 0
-11 -13 -21 -35 0
-11 -13 -21 -43 0
-11 -13 -22 -28 0
-11 -13 -22 -38 0
-11 -13 -22 -46 0
-11 -13 -23 -29 0
-11 -13 -23 -41 0
-11 -13 -23 -49 0
-11 -13 -24 -30 0
-11 -13 -24 -44 0
-11 -13 -25 -31 0
-11 -13 -25 -47 0
-11 -13 -26 -32 0
-11 -13 -26 -50 0
-11 -13 -27 -33 0
-11 -13 -28 -34 0
-11 -13 -29 -35 0
-11 -13 -30 -36 0
-11 -13 -31 -37 0
-11 -13 -32 -38 0
-11 -13 -33 -39 0
-11 -13 -34 -40 0
-11 -13 -35 -41 0
-11 -13 -36 -42 0
-11 -13 -37 -43 0
-11 -13 -38 -44 0
-11 -13 -39 -45 0
-11 -13 -40 -46 0
-11 -13 -41 -47 0
-11 -13 -42 -48 0
-11 -13 -43 -49 0
-11 -13 -44 -50 0
-11 -14 -15 -16 0
-11 -14 -15 -24 0
-11 -14 -15 -26 0
-11 -14 -16 -17 0
-11 -14 -16 -25 0
-11 -14 -16 -29 0
-11 -14 -17 -18 0
-11 -14 -17 -20 0
-11 -14 -17 -26 0
-11 -14 -17 -32 0
-11 -14 -18 -19 0
-11 -14 -18 -23 0
-11 -14 -18 -27 0
-11 -14 -18 -35 0
-11 -14 -19 -20 0
-11 -14 -19 -26 0
-11 -14 -19 -28 0
-11 -14 -19 -38 0
-11 -14 -20 -21 0
-11 -14 -20 -29 0
-11 -14 -20 -41 0
-11 -14 -21 -22 0
-11 -14 -21 -30 0
-11 -14 -21 -32 0
-11 -14 -21 -44 0
-11 -14 -22 -23 0
-11 -14 -22 -31 0
-11 -14 -22 -35 0
-11 -14 -22 -47 0
-11 -14 -23 -24 0
-11 -14 -23 -32 0
-11 -14 -23 -38 0
-11 -14 -23 -50 0
-11 -14 -24 -25 0
-11 -14 -24 -33 0
-11 -14 -24 -41 0
-11 -14 -25 -26 0
-11 -14 -25 -34 0
-11 -14 -25 -44 0
-11 -14 -26 -27 0
-11 -14 -26 -35 0
-11 -14 -26 -47 0
-11 -14 -27 -28 0
-11 -14 -27 -36 0
-11 -14 -27 -50 0
-11 -14 -28 -29 0
-11 -14 -28 -37 0
-11 -14 -29 -30 0
-11 -14 -29 -38 0
-11 -14 -30 -31 0
-11 -14 -30 -39 0
-11 -14 -31 -32 0
-11 -14 -31 -40 0
-11 -14 -32 -33 0
-11 -14 -32 -41 0
-11 -14 -33 -34 0
-11 -14 -33 -42 0
-11 -14 -34 -35 0
-11 -14 -34 -43 0
-11 -14 -35 -36 0
-11 -14 -35 -44 0
-11 -14 -36 -37 0
-11 -14 -36 -45 0
-11 -14 -37 -38 0
-11 -14 -37 -46 0
-11 -14 -38 -39 0
-11 -14 -38 -47 0
-11 -14 -39 -40 0
-11 -14 -39 -48 0
-11 -14 -40 -41 0
-11 -14 -40 -49 0
-11 -14 -41 -42 0
-11 -14 -41 -50 0
-11 -14 -42 -43 0
-11 -14 -43 -44 0
-11 -14 -44 -45 0
-11 -14 -45 -46 0
-11 -14 -46 -47 0
-11 -14 -47 -48 0
-11 -14 -48 -49 0
-11 -14 -49 -50 0
-11 -15 -16 -28 0
-11 -15 -16 -30 0
-11 -15 -17 -29 0
-11 -15 -17 -33 0
-11 -15 -18 -20 0
-11 -15 -18 -30 0
-11 -15 -18 -36 0
-11 -15 -19 -23 0
-11 -15 -19 -31 0
-11 -15 -19 -39 0
-11 -15 -20 -26 0
-11 -15 -20 -32 0
-11 -15 -20 -42 0
-11 -15 -21 -29 0
-11 -15 -21 -33 0
-11 -15 -21 -45 0
-11 -15 -22 -32 0
-11 -15 -22 -34 0
-11 -15 -22 -48 0
-11 -15 -23 -35 0
-11 -15 -24 -36 0
-11 -15 -24 -38 0
-11 -15 -25 -37 0
-11 -15 -25 -41 0
-11 -15 -26 -38 0
-11 -15 -26 -44 0
-11 -15 -27 -39 0
-11 -15 -27 -47 0
-11 -15 -28 -40 0
-11 -15 -28 -50 0
-11 -15 -29 -41 0
-11 -15 -30 -42 0
-11 -15 -31 -43 0
-11 -15 -32 -44 0
-11 -15 -33 -45 0
-11 -15 -34 -46 0
-11 -15 -35 -47 0
-11 -15 -36 -48 0
-11 -15 -37 -49 0
-11 -15 -38 -50 0
-11 -16 -17 -18 0
-11 -16 -17 -32 0
-11 -16 -17 -34 0
-11 -16 -18 -33 0
-11 -16 -18 -37 0
-11 -16 -19 -20 0
-11 -16 -19 -34 0
-11 -16 -19 -40 0
-11 -16 -20 -23 0
-11 -16 -20 -35 0
-11 -16 -20 -43 0
-11 -16 -21 -26 0
-11 -16 -21 -36 0
-11 -16 -21 -46 0
-11 -16 -22 -29 0
-11 -16 -22 -37 0
-11 -16 -22 -49 0
-11 -16 -23 -32 0
-11 -16 -23 -38 0
-11 -16 -24 -35 0
-11 -16 -24 -39 0
-11 -16 -25 -38 0
-11 -16 -25 -40 0
-11 -16 -26 -41 0
-11 -16 -27 -42 0
-11 -16 -27 -44 0
-11 -16 -28 -43 0
-11 -16 -28 -47 0
-11 -16 -29 -44 0
-11 -16 -29 -50 0
-11 -16 -30 -45 0
-11 -16 -31 -46 0
-11 -16 -32 -47 0
-11 -16 -33 -48 0
-11 -16 -34 -49 0
-11 -16 -35 -50 0
-11 -17 -18 -20 0
-11 -17 -18 -36 0
-11 -17 -18 -38 0
-11 -17 -19 -21 0
-11 -17 -19 -37 0
-11 -17 -19 -41 0
-11 -17 -20 -22 0
-11 -17 -20 -38 0
-11 -17 -20 -44 0
-11 -17 -21 -23 0
-11 -17 -21 -39 0
-11 -17 -21 -47 0
-11 -17 -22 -24 0
-11 -17 -22 -26 0
-11 -17 -22 -40 0
-11 -17 -22 -50 0
-11 -17 -23 -25 0
-11 -17 -23 -29 0
-11 -17 -23 -41 0
-11 -17 -24 -26 0
-11 -17 -24 -32 0
-11 -17 -24 -42 0
-11 -17 -25 -27 0
-11 -17 -25 -35 0
-11 -17 -25 -43 0
-11 -17 -26 -28 0
-11 -17 -26 -38 0
-11 -17 -26 -44 0
-11 -17 -27 -29 0
-11 -17 -27 -41 0
-11 -17 -27 -45 0
-11 -17 -28 -30 0
-11 -17 -28 -44 0
-11 -17 -28 -46 0
-11 -17 -29 -31 0
-11 -17 -29 -47 0
-11 -17 -30 -32 0
-11 -17 -30 -48 0
-11 -17 -30 -50 0
-11 -17 -31 -33 0
-11 -17 -31 -49 0
-11 -17 -32 -34 0
-11 -17 -32 -50 0
-11 -17 -33 -35 0
-11 -17 -34 -36 0
-11 -17 -35 -37 0
-11 -17 -36 -38 0
-11 -17 -37 -39 0
-11 -17 -38 -40 0
-11 -17 -39 -41 0
-11 -17 -40 -42 0
-11 -17 -41 -43 0
-11 -17 -42 -44 0
-11 -17 -43 -45 0
-11 -17 -44 -46 0
-11 -17 -45 -47 0
-11 -17 -46 -48 0
-11 -17 -47 -49 0
-11 -17 -48 -50 0
-11 -18 -19 -40 0
-11 -18 -19 -42 0
-11 -18 -20 -21 0
-11 -18 -20 -41 0
-11 -18 -20 -45 0
-11 -18 -21 -42 0
-11 -18 -21 -48 0
-11 -18 -22 -23 0
-11 -18 -22 -43 0
-11 -18 -23 -26 0
-11 -18 -23 -44 0
-11 -18 -24 -29 0
-11 -18 -24 -45 0
-11 -18 -25 -32 0
-11 -18 -25 -46 0
-11 -18 -26 -35 0
-11 -18 -26 -47 0
-11 -18 -27 -38 0
-11 -18 -27 -48 0
-11 -18 -28 -41 0
-11 -18 -28 -49 0
-11 -18 -29 -44 0
-11 -18 -29 -50 0
-11 -18 -30 -47 0
-11 -18 -31 -50 0
-11 -19 -20 -22 0
-11 -19 -20 -44 0
-11 -19 -20 -46 0
-11 -19 -21 -45 0
-11 -19 -21 -49 0
-11 -19 -22 -46 0
-11 -19 -23 -47 0
-11 -19 -24 -26 0
-11 -19 -24 -48 0
-11 -19 -25 -29 0
-11 -19 -25 -49 0
-11 -19 -26 -32 0
-11 -19 -26 -50 0
-11 -19 -27 -35 0
-11 -19 -28 -38 0
-11 -19 -29 -41 0
-11 -19 -30 -44 0
-11 -19 -31 -47 0
-11 -19 -32 -50 0
-11 -20 -21 -24 0
-11 -20 -21 -48 0
-11 -20 -21 -50 0
-11 -20 -22 -25 0
-11 -20 -22 -49 0
-11 -20 -23 -24 0
-11 -20 -23 -26 0
-11 -20 -23 -50 0
-11 -20 -24 -27 0
-11 -20 -25 -26 0
-11 -20 -25 -28 0
-11 -20 -26 -29 0
-11 -20 -27 -30 0
-11 -20 -27 -32 0
-11 -20 -28 -31 0
-11 -20 -28 -35 0
-11 -20 -29 -32 0
-11 -20 -29 -38 0
-11 -20 -30 -33 0
-11 -20 -30 -41 0
-11 -20 -31 -34 0
-11 -20 -31 -44 0
-11 -20 -32 -35 0
-11 -20 -32 -47 0
-11 -20 -33 -36 0
-11 -20 -33 -50 0
-11 -20 -34 -37 0
-11 -20 -35 -38 0
-11 -20 -36 -39 0
-11 -20 -37 -40 0
-11 -20 -38 -41 0
-11 -20 -39 -42 0
-11 -20 -40 -43 0
-11 -20 -41 -44 0
-11 -20 -42 -45 0
-11 -20 -43 -46 0
-11 -20 -44 -47 0
-11 -20 -45 -48 0
-11 -20 -46 -49 0
-11 -20 -47 -50 0
-11 -21 -23 -25 0
-11 -21 -27 -29 0
-11 -21 -28 -32 0
-11 -21 -29 -35 0
-11 -21 -30 -38 0
-11 -21 -31 -41 0
-11 -21 -32 -44 0
-11 -21 -33 -47 0
-11 -21 -34 -50 0
-11 -22 -23 -26 0
-11 -22 -26 -27 0
-11 -22 -28 -29 0
-11 -22 -29 -32 0
-11 -22 -30 -35 0
-11 -22 -31 -38 0
-11 -22 -32 -41 0
-11 -22 -33 -44 0
-11 -22 -34 -47 0
-11 -22 -35 -50 0
-11 -23 -24 -28 0
-11 -23 -25 -29 0
-11 -23 -26 -28 0
-11 -23 -26 -30 0
-11 -23 -27 -31 0
-11 -23 -28 -32 0
-11 -23 -29 -33 0
-11 -23 -30 -32 0
-11 -23 -30 -34 0
-11 -23 -31 -35 0
-11 -23 -32 -36 0
-11 -23 -32 -38 0
-11 -23 -33 -37 0
-11 -23 -33 -41 0
-11 -23 -34 -38 0
-11 -23 -34 -44 0
-11 -23 -35 -39 0
-11 -23 -35 -47 0
-11 -23 -36 -40 0
-11 -23 -36 -50 0
-11 -23 -37 -41 0
-11 -23 -38 -42 0
-11 -23 -39 -43 0
-11 -23 -40 -44 0
-11 -23 -41 -45 0
-11 -23 -42 -46 0
-11 -23 -43 -47 0
-11 -23 -44 -48 0
-11 -23 -45 -49 0
-11 -23 -46 -50 0
-11 -24 -26 -29 0
-11 -24 -29 -30 0
-11 -24 -31 -32 0
-11 -24 -32 -35 0
-11 -24 -33 -38 0
-11 -24 -34 -41 0
-11 -24 -35 -44 0
-11 -24 -36 -47 0
-11 -24 -37 -50 0
-11 -25 -26 -30 0
-11 -25 -29 -31 0
-11 -25 -33 -35 0
-11 -25 -34 -38 0
-11 -25 -35 -41 0
-11 -25 -36 -44 0
-11 -25 -37 -47 0
-11 -25 -38 -50 0
-11 -26 -27 -32 0
-11 -26 -28 -33 0
-11 -26 -29 -32 0
-11 -26 -29 -34 0
-11 -26 -30 -35 0
-11 -26 -31 -36 0
-11 -26 -32 -33 0
-11 -26 -32 -37 0
-11 -26 -33 -38 0
-11 -26 -34 -35 0
-11 -26 -34 -39 0
-11 -26 -35 -38 0
-11 -26 -35 -40 0
-11 -26 -36 -41 0
-11 -26 -37 -42 0
-11 -26 -37 -44 0
-11 -26 -38 -43 0
-11 -26 -38 -47 0
-11 -26 -39 -44 0
-11 -26 -39 -50 0
-11 -26 -40 -45 0
-11 -26 -41 -46 0
-11 -26 -42 -47 0
-11 -26 -43 -48 0
-11 -26 -44 -49 0
-11 -26 -45 -50 0
-11 -27 -29 -33 0
-11 -27 -32 -34 0
-11 -27 -36 -38 0
-11 -27 -37 -41 0
-11 -27 -38 -44 0
-11 -27 -39 -47 0
-11 -27 -40 -50 0
-11 -28 -29 -34 0
-11 -28 -32 -35 0
-11 -28 -35 -36 0
-11 -28 -37 -38 0
-11 -28 -38 -41 0
-11 -28 -39 -44 0
-11 -28 -40 -47 0
-11 -28 -41 -50 0
-11 -29 -30 -36 0
-11 -29 -31 -37 0
-11 -29 -32 -36 0
-11 -29 -32 -38 0
-11 -29 -33 -39 0
-11 -29 -34 -40 0
-11 -29 -35 -37 0
-11 -29 -35 -41 0
-11 -29 -36 -42 0
-11 -29 -37 -43 0
-11 -29 -38 -44 0
-11 -29 -39 -41 0
-11 -29 -39 -45 0
-11 -29 -40 -44 0
-11 -29 -40 -46 0
-11 -29 -41 -47 0
-11 -29 -42 -48 0
-11 -29 -42 -50 0
-11 -29 -43 -49 0
-11 -29 -44 -50 0
-11 -30 -32 -37 0
-11 -30 -35 -38 0
-11 -30 -38 -39 0
-11 -30 -40 -41 0
-11 -30 -41 -44 0
-11 -30 -42 -47 0
-11 -30 -43 -50 0
-11 -31 -32 -38 0
-11 -31 -35 -39 0
-11 -31 -38 -40 0
-11 -31 -42 -44 0
-11 -31 -43 -47 0
-11 -31 -44 -50 0
-11 -32 -33 -40 0
-11 -32 -34 -41 0
-11 -32 -35 -40 0
-11 -32 -35 -42 0
-11 -32 -36 -43 0
-11 -32 -37 -44 0
-11 -32 -38 -41 0
-11 -32 -38 -45 0
-11 -32 -39 -46 0
-11 -32 -40 -47 0
-11 -32 -41 -42 0
-11 -32 -41 -48 0
-11 -32 -42 -49 0
-11 -32 -43 -44 0
-11 -32 -43 -50 0
-11 -32 -44 -47 0
-11 -32 -45 -50 0
-11 -33 -35 -41 0
-11 -33 -38 -42 0
-11 -33 -41 -43 0
-11 -33 -45 -47 0
-11 -33 -46 -50 0
-11 -34 -35 -42 0
-11 -34 -38 -43 0
-11 -34 -41 -44 0
-11 -34 -44 -45 0
-11 -34 -46 -47 0
-11 -34 -47 -50 0
-11 -35 -36 -44 0
-11 -35 -37 -45 0
-11 -35 -38 -44 0
-11 -35 -38 -46 0
-11 -35 -39 -47 0
-11 -35 -40 -48 0
-11 -35 -41 -45 0
-11 -35 -41 -49 0
-11 -35 -42 -50 0
-11 -35 -44 -46 0
-11 -35 -48 -50 0
-11 -36 -38 -45 0
-11 -36 -41 -46 0
-11 -36 -44 -47 0
-11 -36 -47 -48 0
-11 -36 -49 -50 0
-11 -37 -38 -46 0
-11 -37 -41 -47 0
-11 -37 -44 -48 0
-11 -37 -47 -49 0
-11 -38 -39 -48 0
-11 -38 -40 -49 0
-11 -38 -41 -48 0
-11 -38 -41 -50 0
-11 -38 -44 -49 0
-11 -38 -47 -50 0
-11 -39 -41 -49 0
-11 -39 -44 -50 0
-11 -40 -41 -50 0
-12 -13 -14 -15 0
-12 -13 -14 -17 0
-12 -13 -14 -19 0
-12 -13 -15 -18 0
-12 -13 -15 -22 0
-12 -13 -16 -19 0
-12 -13 -16 -21 0
-12 -13 -16 -25 0
-12 -13 -17 -20 0
-12 -13 -17 -24 0
-12 -13 -17 -28 0
-12 -13 -18 -21 0
-12 -13 -18 -27 0
-12 -13 -18 -31 0
-12 -13 -19 -22 0
-12 -13 -19 -30 0
-12 -13 -19 -34 0
-12 -13 -20 -23 0
-12 -13 -20 -33 0
-12 -13 -20 -37 0
-12 -13 -21 -24 0
-12 -13 -21 -36 0
-12 -13 -21 -40 0
-12 -13 -22 -25 0
-12 -13 -22 -39 0
-12 -13 -22 -43 0
-12 -13 -23 -26 0
-12 -13 -23 -42 0
-12 -13 -23 -46 0
-12 -13 -24 -27 0
-12 -13 -24 -45 0
-12 -13 -24 -49 0
-12 -13 -25 -28 0
-12 -13 -25 -48 0
-12 -13 -26 -29 0
-12 -13 -27 -30 0
-12 -13 -28 -31 0
-12 -13 -29 -32 0
-12 -13 -30 -33 0
-12 -13 -31 -34 0
-12 -13 -32 -35 0
-12 -13 -33 -36 0
-12 -13 -34 -37 0
-12 -13 -35 -38 0
-12 -13 -36 -39 0
-12 -13 -37 -40 0
-12 -13 -38 -41 0
-12 -13 -39 -42 0
-12 -13 -40 -43 0
-12 -13 -41 -44 0
-12 -13 -42 -45 0
-12 -13 -43 -46 0
-12 -13 -44 -47 0
-12 -13 -45 -48 0
-12 -13 -46 -49 0
-12 -13 -47 -50 0
-12 -14 -15 -21 0
-12 -14 -15 -23 0
-12 -14 -16 -18 0
-12 -14 -16 -22 0
-12 -14 -16 -26 0
-12 -14 -17 -21 0
-12 -14 -17 -23 0
-12 -14 -17 -29 0
-12 -14 -18 -24 0
-12 -14 -18 -32 0
-12 -14 -19 -25 0
-12 -14 -19 -27 0
-12 -14 -19 -35 0
-12 -14 -20 -26 0
-12 -14 -20 -30 0
-12 -14 -20 -38 0
-12 -14 -21 -27 0
-12 -14 -21 -33 0
-12 -14 -21 -41 0
-12 -14 -22 -28 0
-12 -14 -22 -36 0
-12 -14 -22 -44 0
-12 -14 -23 -29 0
-12 -14 -23 -39 0
-12 -14 -23 -47 0
-12 -14 -24 -30 0
-12 -14 -24 -42 0
-12 -14 -24 -50 0
-12 -14 -25 -31 0
-12 -14 -25 -45 0
-12 -14 -26 -32 0
-12 -14 -26 -48 0
-12 -14 -27 -33 0
-12 -14 -28 -34 0
-12 -14 -29 -35 0
-12 -14 -30 -36 0
-12 -14 -31 -37 0
-12 -14 -32 -38 0
-12 -14 -33 -39 0
-12 -14 -34 -40 0
-12 -14 -35 -41 0
-12 -14 -36 -42 0
-12 -14 -37 -43 0
-12 -14 -38 -44 0
-12 -14 -39 -45 0
-12 -14 -40 -46 0
-12 -14 -41 -47 0
-12 -14 -42 -48 0
-12 -14 -43 -49 0
-12 -14 -44 -50 0
-12 -15 -16 -17 0
-12 -15 -16 -25 0
-12 -15 -16 -27 0
-12 -15 -17 -18 0
-12 -15 -17 -26 0
-12 -15 -17 -30 0
-12 -15 -18 -19 0
-12 -15 -18 -21 0
-12 -15 -18 -27 0
-12 -15 -18 -33 0
-12 -15 -19 -20 0
-12 -15 -19 -24 0
-12 -15 -19 -28 0
-12 -15 -19 -36 0
-12 -15 -20 -21 0
-12 -15 -20 -27 0
-12 -15 -20 -29 0
-12 -15 -20 -39 0
-12 -15 -21 -22 0
-12 -15 -21 -30 0
-12 -15 -21 -42 0
-12 -15 -22 -23 0
-12 -15 -22 -31 0
-12 -15 -22 -33 0
-12 -15 -22 -45 0
-12 -15 -23 -24 0
-12 -15 -23 -32 0
-12 -15 -23 -36 0
-12 -15 -23 -48 0
-12 -15 -24 -25 0
-12 -15 -24 -33 0
-12 -15 -24 -39 0
-12 -15 -25 -26 0
-12 -15 -25 -34 0
-12 -15 -25 -42 0
-12 -15 -26 -27 0
-12 -15 -26 -35 0
-12 -15 -26 -45 0
-12 -15 -27 -28 0
-12 -15 -27 -36 0
-12 -15 -27 -48 0
-12 -15 -28 -29 0
-12 -15 -28 -37 0
-12 -15 -29 -30 0
-12 -15 -29 -38 0
-12 -15 -30 -31 0
-12 -15 -30 -39 0
-12 -15 -31 -32 0
-12 -15 -31 -40 0
-12 -15 -32 -33 0
-12 -15 -32 -41 0
-12 -15 -33 -34 0
-12 -15 -33 -42 0
-12 -15 -34 -35 0
-12 -15 -34 -43 0
-12 -15 -35 -36 0
-12 -15 -35 -44 0
-12 -15 -36 -37 0
-12 -15 -36 -45 0
-12 -15 -37 -38 0
-12 -15 -37 -46 0
-12 -15 -38 -39 0
-12 -15 -38 -47 0
-12 -15 -39 -40 0
-12 -15 -39 -48 0
-12 -15 -40 -41 0
-12 -15 -40 -49 0
-12 -15 -41 -42 0
-12 -15 -41 -50 0
-12 -15 -42 -43 0
-12 -15 -43 -44 0
-12 -15 -44 -45 0
-12 -15 -45 -46 0
-12 -15 -46 -47 0
-12 -15 -47 -48 0
-12 -15 -48 -49 0
-12 -15 -49 -50 0
-12 -16 -17 -29 0
-12 -16 -17 -31 0
-12 -16 -18 -30 0
-12 -16 -18 -34 0
-12 -16 -19 -21 0
-12 -16 -19 -31 0
-12 -16 -19 -37 0
-12 -16 -20 -24 0
-12 -16 -20 -32 0
-12 -16 -20 -40 0
-12 -16 -21 -27 0
-12 -16 -21 -33 0
-12 -16 -21 -43 0
-12 -16 -22 -30 0
-12 -16 -22 -34 0
-12 -16 -22 -46 0
-12 -16 -23 -33 0
-12 -16 -23 -35 0
-12 -16 -23 -49 0
-12 -16 -24 -36 0
-12 -16 -25 -37 0
-12 -16 -25 -39 0
-12 -16 -26 -38 0
-12 -16 -26 -42 0
-12 -16 -27 -39 0
-12 -16 -27 -45 0
-12 -16 -28 -40 0
-12 -16 -28 -48 0
-12 -16 -29 -41 0
-12 -16 -30 -42 0
-12 -16 -31 -43 0
-12 -16 -32 -44 0
-12 -16 -33 -45 0
-12 -16 -34 -46 0
-12 -16 -35 -47 0
-12 -16 -36 -48 0
-12 -16 -37 -49 0
-12 -16 -38 -50 0
-12 -17 -18 -19 0
-12 -17 -18 -33 0
-12 -17 -18 -35 0
-12 -17 -19 -34 0
-12 -17 -19 -38 0
-12 -17 -20 -21 0
-12 -17 -20 -35 0
-12 -17 -20 -41 0
-12 -17 -21 -24 0
-12 -17 -21 -36 0
-12 -17 -21 -44 0
-12 -17 -22 -27 0
-12 -17 -22 -37 0
-12 -17 -22 -47 0
-12 -17 -23 -30 0
-12 -17 -23 -38 0
-12 -17 -23 -50 0
-12 -17 -24 -33 0
-12 -17 -24 -39 0
-12 -17 -25 -36 0
-12 -17 -25 -40 0
-12 -17 -26 -39 0
-12 -17 -26 -41 0
-12 -17 -27 -42 0
-12 -17 -28 -43 0
-12 -17 -28 -45 0
-12 -17 -29 -44 0
-12 -17 -29 -48 0
-12 -17 -30 -45 0
-12 -17 -31 -46 0
-12 -17 -32 -47 0
-12 -17 -33 -48 0
-12 -17 -34 -49 0
-12 -17 -35 -50 0
-12 -18 -19 -21 0
-12 -18 -19 -37 0
-12 -18 -19 -39 0
-12 -18 -20 -22 0
-12 -18 -20 -38 0
-12 -18 -20 -42 0
-12 -18 -21 -23 0
-12 -18 -21 -39 0
-12 -18 -21 -45 0
-12 -18 -22 -24 0
-12 -18 -22 -40 0
-12 -18 -22 -48 0
-12 -18 -23 -25 0
-12 -18 -23 -27 0
-12 -18 -23 -41 0
-12 -18 -24 -26 0
-12 -18 -24 -30 0
-12 -18 -24 -42 0
-12 -18 -25 -27 0
-12 -18 -25 -33 0
-12 -18 -25 -43 0
-12 -18 -26 -28 0
-12 -18 -26 -36 0
-12 -18 -26 -44 0
-12 -18 -27 -29 0
-12 -18 -27 -39 0
-12 -18 -27 -45 0
-12 -18 -28 -30 0
-12 -18 -28 -42 0
-12 -18 -28 -46 0
-12 -18 -29 -31 0
-12 -18 -29 -45 0
-12 -18 -29 -47 0
-12 -18 -30 -32 0
-12 -18 -30 -48 0
-12 -18 -31 -33 0
-12 -18 -31 -49 0
-12 -18 -32 -34 0
-12 -18 -32 -50 0
-12 -18 -33 -35 0
-12 -18 -34 -36 0
-12 -18 -35 -37 0
-12 -18 -36 -38 0
-12 -18 -37 -39 0
-12 -18 -38 -40 0
-12 -18 -39 -41 0
-12 -18 -40 -42 0
-12 -18 -41 -43 0
-12 -18 -42 -44 0
-12 -18 -43 -45 0
-12 -18 -44 -46 0
-12 -18 -45 -47 0
-12 -18 -46 -48 0
-12 -18 -47 -49 0
-12 -18 -48 -50 0
-12 -19 -20 -41 0
-12 -19 -20 -43 0
-12 -19 -21 -22 0
-12 -19 -21 -42 0
-12 -19 -21 -46 0
-12 -19 -22 -43 0
-12 -19 -22 -49 0
-12 -19 -23 -24 0
-12 -19 -23 -44 0
-12 -19 -24 -27 0
-12 -19 -24 -45 0
-12 -19 -25 -30 0
-12 -19 -25 -46 0
-12 -19 -26 -33 0
-12 -19 -26 -47 0
-12 -19 -27 -36 0
-12 -19 -27 -48 0
-12 -19 -28 -39 0
-12 -19 -28 -49 0
-12 -19 -29 -42 0
-12 -19 -29 -50 0
-12 -19 -30 -45 0
-12 -19 -31 -48 0
-12 -20 -21 -23 0
-12 -20 -21 -45 0
-12 -20 -21 -47 0
-12 -20 -22 -46 0
-12 -20 -22 -50 0
-12 -20 -23 -47 0
-12 -20 -24 -48 0
-12 -20 -25 -27 0
-12 -20 -25 -49 0
-12 -20 -26 -30 0
-12 -20 -26 -50 0
-12 -20 -27 -33 0
-12 -20 -28 -36 0
-12 -20 -29 -39 0
-12 -20 -30 -42 0
-12 -20 -31 -45 0
-12 -20 -32 -48 0
-12 -21 -22 -25 0
-12 -21 -22 -49 0
-12 -21 -23 -26 0
-12 -21 -23 -50 0
-12 -21 -24 -25 0
-12 -21 -24 -27 0
-12 -21 -25 -28 0
-12 -21 -26 -27 0
-12 -21 -26 -29 0
-12 -21 -27 -30 0
-12 -21 -28 -31 0
-12 -21 -28 -33 0
-12 -21 -29 -32 0
-12 -21 -29 -36 0
-12 -21 -30 -33 0
-12 -21 -30 -39 0
-12 -21 -31 -34 0
-12 -21 -31 -42 0
-12 -21 -32 -35 0
-12 -21 -32 -45 0
-12 -21 -33 -36 0
-12 -21 -33 -48 0
-12 -21 -34 -37 0
-12 -21 -35 -38 0
-12 -21 -36 -39 0
-12 -21 -37 -40 0
-12 -21 -38 -41 0
-12 -21 -39 -42 0
-12 -21 -40 -43 0
-12 -21 -41 -44 0
-12 -21 -42 -45 0
-12 -21 -43 -46 0
-12 -21 -44 -47 0
-12 -21 -45 -48 0
-12 -21 -46 -49 0
-12 -21 -47 -50 0
-12 -22 -24 -26 0
-12 -22 -28 -30 0
-12 -22 -29 -33 0
-12 -22 -30 -36 0
-12 -22 -31 -39 0
-12 -22 -32 -42 0
-12 -22 -33 -45 0
-12 -22 -34 -48 0
-12 -23 -24 -27 0
-12 -23 -27 -28 0
-12 -23 -29 -30 0
-12 -23 -30 -33 0
-12 -23 -31 -36 0
-12 -23 -32 -39 0
-12 -23 -33 -42 0
-12 -23 -34 -45 0
-12 -23 -35 -48 0
-12 -24 -25 -29 0
-12 -24 -26 -30 0
-12 -24 -27 -29 0
-12 -24 -27 -31 0
-12 -24 -28 -32 0
-12 -24 -29 -33 0
-12 -24 -30 -34 0
-12 -24 -31 -33 0
-12 -24 -31 -35 0
-12 -24 -32 -36 0
-12 -24 -33 -37 0
-12 -24 -33 -39 0
-12 -24 -34 -38 0
-12 -24 -34 -42 0
-12 -24 -35 -39 0
-12 -24 -35 -45 0
-12 -24 -36 -40 0
-12 -24 -36 -48 0
-12 -24 -37 -41 0
-12 -24 -38 -42 0
-12 -24 -39 -43 0
-12 -24 -40 -44 0
-12 -24 -41 -45 0
-12 -24 -42 -46 0
-12 -24 -43 -47 0
-12 -24 -44 -48 0
-12 -24 -45 -49 0
-12 -24 -46 -50 0
-12 -25 -27 -30 0
-12 -25 -30 -31 0
-12 -25 -32 -33 0
-12 -25 -33 -36 0
-12 -25 -34 -39 0
-12 -25 -35 -42 0
-12 -25 -36 -45 0
-12 -25 -37 -48 0
-12 -26 -27 -31 0
-12 -26 -30 -32 0
-12 -26 -34 -36 0
-12 -26 -35 -39 0
-12 -26 -36 -42 0
-12 -26 -37 -45 0
-12 -26 -38 -48 0
-12 -27 -28 -33 0
-12 -27 -29 -34 0
-12 -27 -30 -33 0
-12 -27 -30 -35 0
-12 -27 -31 -36 0
-12 -27 -32 -37 0
-12 -27 -33 -34 0
-12 -27 -33 -38 0
-12 -27 -34 -39 0
-12 -27 -35 -36 0
-12 -27 -35 -40 0
-12 -27 -36 -39 0
-12 -27 -36 -41 0
-12 -27 -37 -42 0
-12 -27 -38 -43 0
-12 -27 -38 -45 0
-12 -27 -39 -44 0
-12 -27 -39 -48 0
-12 -27 -40 -45 0
-12 -27 -41 -46 0
-12 -27 -42 -47 0
-12 -27 -43 -48 0
-12 -27 -44 -49 0
-12 -27 -45 -50 0
-12 -28 -30 -34 0
-12 -28 -33 -35 0
-12 -28 -37 -39 0
-12 -28 -38 -42 0
-12 -28 -39 -45 0
-12 -28 -40 -48 0
-12 -29 -30 -35 0
-12 -29 -33 -36 0
-12 -29 -36 -37 0
-12 -29 -38 -39 0
-12 -29 -39 -42 0
-12 -29 -40 -45 0
-12 -29 -41 -48 0
-12 -30 -31 -37 0
-12 -30 -32 -38 0
-12 -30 -33 -37 0
-12 -30 -33 -39 0
-12 -30 -34 -40 0
-12 -30 -35 -41 0
-12 -30 -36 -38 0
-12 -30 -36 -42 0
-12 -30 -37 -43 0
-12 -30 -38 -44 0
-12 -30 -39 -45 0
-12 -30 -40 -42 0
-12 -30 -40 -46 0
-12 -30 -41 -45 0
-12 -30 -41 -47 0
-12 -30 -42 -48 0
-12 -30 -43 -49 0
-12 -30 -44 -50 0
-12 -31 -33 -38 0
-12 -31 -36 -39 0
-12 -31 -39 -40 0
-12 -31 -41 -42 0
-12 -31 -42 -45 0
-12 -31 -43 -48 0
-12 -32 -33 -39 0
-12 -32 -36 -40 0
-12 -32 -39 -41 0
-12 -32 -43 -45 0
-12 -32 -44 -48 0
-12 -33 -34 -41 0
-12 -33 -35 -42 0
-12 -33 -36 -41 0
-12 -33 -36 -43 0
-12 -33 -37 -44 0
-12 -33 -38 -45 0
-12 -33 -39 -42 0
-12 -33 -39 -46 0
-12 -33 -40 -47 0
-12 -33 -41 -48 0
-12 -33 -42 -43 0
-12 -33 -42 -49 0
-12 -33 -43 -50 0
-12 -33 -44 -45 0
-12 -33 -45 -48 0
-12 -34 -36 -42 0
-12 -34 -39 -43 0
-12 -34 -42 -44 0
-12 -34 -46 -48 0
-12 -35 -36 -43 0
-12 -35 -39 -44 0
-12 -35 -42 -45 0
-12 -35 -45 -46 0
-12 -35 -47 -48 0
-12 -36 -37 -45 0
-12 -36 -38 -46 0
-12 -36 -39 -45 0
-12 -36 -39 -47 0
-12 -36 -40 -48 0
-12 -36 -41 -49 0
-12 -36 -42 -46 0
-12 -36 -42 -50 0
-12 -36 -45 -47 0
-12 -37 -39 -46 0
-12 -37 -42 -47 0
-12 -37 -45 -48 0
-12 -37 -48 -49 0
-12 -38 -39 -47 0
-12 -38 -42 -48 0
-12 -38 -45 -49 0
-12 -38 -48 -50 0
-12 -39 -40 -49 0
-12 -39 -41 -50 0
-12 -39 -42 -49 0
-12 -39 -45 -50 0
-12 -40 -42 -50 0
-13 -14 -15 -16 0
-13 -14 -15 -18 0
-13 -14 -15 -20 0
-13 -14 -16 -19 0
-13 -14 -16 -23 0
-13 -14 -17 -20 0
-13 -14 -17 -22 0
-13 -14 -17 -26 0
-13 -14 -18 -21 0
-13 -14 -18 -25 0
-13 -14 -18 -29 0
-13 -14 -19 -22 0
-13 -14 -19 -28 0
-13 -14 -19 -32 0
-13 -14 -20 -23 0
-13 -14 -20 -31 0
-13 -14 -20 -35 0
-13 -14 -21 -24 0
-13 -14 -21 -34 0
-13 -14 -21 -38 0
-13 -14 -22 -25 0
-13 -14 -22 -37 0
-13 -14 -22 -41 0
-13 -14 -23 -26 0
-13 -14 -23 -40 0
-13 -14 -23 -44 0
-13 -14 -24 -27 0
-13 -14 -24 -43 0
-13 -14 -24 -47 0
-13 -14 -25 -28 0
-13 -14 -25 -46 0
-13 -14 -25 -50 0
-13 -14 -26 -29 0
-13 -14 -26 -49 0
-13 -14 -27 -30 0
-13 -14 -28 -31 0
-13 -14 -29 -32 0
-13 -14 -30 -33 0
-13 -14 -31 -34 0
-13 -14 -32 -35 0
-13 -14 -33 -36 0
-13 -14 -34 -37 0
-13 -14 -35 -38 0
-13 -14 -36 -39 0
-13 -14 -37 -40 0
-13 -14 -38 -41 0
-13 -14 -39 -42 0
-13 -14 -40 -43 0
-13 -14 -41 -44 0
-13 -14 -42 -45 0
-13 -14 -43 -46 0
-13 -14 -44 -47 0
-13 -14 -45 -48 0
-13 -14 -46 -49 0
-13 -14 -47 -50 0
-13 -15 -16 -22 0
-13 -15 -16 -24 0
-13 -15 -17 -19 0
-13 -15 -17 -23 0
-13 -15 -17 -27 0
-13 -15 -18 -22 0
-13 -15 -18 -24 0
-13 -15 -18 -30 0
-13 -15 -19 -25 0
-13 -15 -19 -33 0
-13 -15 -20 -26 0
-13 -15 -20 -28 0
-13 -15 -20 -36 0
-13 -15 -21 -27 0
-13 -15 -21 -31 0
-13 -15 -21 -39 0
-13 -15 -22 -28 0
-13 -15 -22 -34 0
-13 -15 -22 -42 0
-13 -15 -23 -29 0
-13 -15 -23 -37 0
-13 -15 -23 -45 0
-13 -15 -24 -30 0
-13 -15 -24 -40 0
-13 -15 -24 -48 0
-13 -15 -25 -31 0
-13 -15 -25 -43 0
-13 -15 -26 -32 0
-13 -15 -26 -46 0
-13 -15 -27 -33 0
-13 -15 -27 -49 0
-13 -15 -28 -34 0
-13 -15 -29 -35 0
-13 -15 -30 -36 0
-13 -15 -31 -37 0
-13 -15 -32 -38 0
-13 -15 -33 -39 0
-13 -15 -34 -40 0
-13 -15 -35 -41 0
-13 -15 -36 -42 0
-13 -15 -37 -43 0
-13 -15 -38 -44 0
-13 -15 -39 -45 0
-13 -15 -40 -46 0
-13 -15 -41 -47 0
-13 -15 -42 -48 0
-13 -15 -43 -49 0
-13 -15 -44 -50 0
-13 -16 -17 -18 0
-13 -16 -17 -26 0
-13 -16 -17 -28 0
-13 -16 -18 -19 0
-13 -16 -18 -27 0
-13 -16 -18 -31 0
-13 -16 -19 -20 0
-13 -16 -19 -22 0
-13 -16 -19 -28 0
-13 -16 -19 -34 0
-13 -16 -20 -21 0
-13 -16 -20 -25 0
-13 -16 -20 -29 0
-13 -16 -20 -37 0
-13 -16 -21 -22 0
-13 -16 -21 -28 0
-13 -16 -21 -30 0
-13 -16 -21 -40 0
-13 -16 -22 -23 0
-13 -16 -22 -31 0
-13 -16 -22 -43 0
-13 -16 -23 -24 0
-13 -16 -23 -32 0
-13 -16 -23 -34 0
-13 -16 -23 -46 0
-13 -16 -24 -25 0
-13 -16 -24 -33 0
-13 -16 -24 -37 0
-13 -16 -24 -49 0
-13 -16 -25 -26 0
-13 -16 -25 -34 0
-13 -16 -25 -40 0
-13 -16 -26 -27 0
-13 -16 -26 -35 0
-13 -16 -26 -43 0
-13 -16 -27 -28 0
-13 -16 -27 -36 0
-13 -16 -27 -46 0
-13 -16 -28 -29 0
-13 -16 -28 -37 0
-13 -16 -28 -49 0
-13 -16 -29 -30 0
-13 -16 -29 -38 0
-13 -16 -30 -31 0
-13 -16 -30 -39 0
-13 -16 -31 -32 0
-13 -16 -31 -40 0
-13 -16 -32 -33 0
-13 -16 -32 -41 0
-13 -16 -33 -34 0
-13 -16 -33 -42 0
-13 -16 -34 -35 0
-13 -16 -34 -43 0
-13 -16 -35 -36 0
-13 -16 -35 -44 0
-13 -16 -36 -37 0
-13 -16 -36 -45 0
-13 -16 -37 -38 0
-13 -16 -37 -46 0
-13 -16 -38 -39 0
-13 -16 -38 -47 0
-13 -16 -39 -40 0
-13 -16 -39 -48 0
-13 -16 -40 -41 0
-13 -16 -40 -49 0
-13 -16 -41 -42 0
-13 -16 -41 -50 0
-13 -16 -42 -43 0
-13 -16 -43 -44 0
-13 -16 -44 -45 0
-13 -16 -45 -46 0
-13 -16 -46 -47 0
-13 -16 -47 -48 0
-13 -16 -48 -49 0
-13 -16 -49 -50 0
-13 -17 -18 -30 0
-13 -17 -18 -32 0
-13 -17 -19 -31 0
-13 -17 -19 -35 0
-13 -17 -20 -22 0
-13 -17 -20 -32 0
-13 -17 -20 -38 0
-13 -17 -21 -25 0
-13 -17 -21 -33 0
-13 -17 -21 -41 0
-13 -17 -22 -28 0
-13 -17 -22 -34 0
-13 -17 -22 -44 0
-13 -17 -23 -31 0
-13 -17 -23 -35 0
-13 -17 -23 -47 0
-13 -17 -24 -34 0
-13 -17 -24 -36 0
-13 -17 -24 -50 0
-13 -17 -25 -37 0
-13 -17 -26 -38 0
-13 -17 -26 -40 0
-13 -17 -27 -39 0
-13 -17 -27 -43 0
-13 -17 -28 -40 0
-13 -17 -28 -46 0
-13 -17 -29 -41 0
-13 -17 -29 -49 0
-13 -17 -30 -42 0
-13 -17 -31 -43 0
-13 -17 -32 -44 0
-13 -17 -33 -45 0
-13 -17 -34 -46 0
-13 -17 -35 -47 0
-13 -17 -36 -48 0
-13 -17 -37 -49 0
-13 -17 -38 -50 0
-13 -18 -19 -20 0
-13 -18 -19 -34 0
-13 -18 -19 -36 0
-13 -18 -20 -35 0
-13 -18 -20 -39 0
-13 -18 -21 -22 0
-13 -18 -21 -36 0
-13 -18 -21 -42 0
-13 -18 -22 -25 0
-13 -18 -22 -37 0
-13 -18 -22 -45 0
-13 -18 -23 -28 0
-13 -18 -23 -38 0
-13 -18 -23 -48 0
-13 -18 -24 -31 0
-13 -18 -24 -39 0
-13 -18 -25 -34 0
-13 -18 -25 -40 0
-13 -18 -26 -37 0
-13 -18 -26 -41 0
-13 -18 -27 -40 0
-13 -18 -27 -42 0
-13 -18 -28 -43 0
-13 -18 -29 -44 0
-13 -18 -29 -46 0
-13 -18 -30 -45 0
-13 -18 -30 -49 0
-13 -18 -31 -46 0
-13 -18 -32 -47 0
-13 -18 -33 -48 0
-13 -18 -34 -49 0
-13 -18 -35 -50 0
-13 -19 -20 -22 0
-13 -19 -20 -38 0
-13 -19 -20 -40 0
-13 -19 -21 -23 0
-13 -19 -21 -39 0
-13 -19 -21 -43 0
-13 -19 -22 -24 0
-13 -19 -22 -40 0
-13 -19 -22 -46 0
-13 -19 -23 -25 0
-13 -19 -23 -41 0
-13 -19 -23 -49 0
-13 -19 -24 -26 0
-13 -19 -24 -28 0
-13 -19 -24 -42 0
-13 -19 -25 -27 0
-13 -19 -25 -31 0
-13 -19 -25 -43 0
-13 -19 -26 -28 0
-13 -19 -26 -34 0
-13 -19 -26 -44 0
-13 -19 -27 -29 0
-13 -19 -27 -37 0
-13 -19 -27 -45 0
-13 -19 -28 -30 0
-13 -19 -28 -40 0
-13 -19 -28 -46 0
-13 -19 -29 -31 0
-13 -19 -29 -43 0
-13 -19 -29 -47 0
-13 -19 -30 -32 0
-13 -19 -30 -46 0
-13 -19 -30 -48 0
-13 -19 -31 -33 0
-13 -19 -31 -49 0
-13 -19 -32 -34 0
-13 -19 -32 -50 0
-13 -19 -33 -35 0
-13 -19 -34 -36 0
-13 -19 -35 -37 0
-13 -19 -36 -38 0
-13 -19 -37 -39 0
-13 -19 -38 -40 0
-13 -19 -39 -41 0
-13 -19 -40 -42 0
-13 -19 -41 -43 0
-13 -19 -42 -44 0
-13 -19 -43 -45 0
-13 -19 -44 -46 0
-13 -19 -45 -47 0
-13 -19 -46 -48 0
-13 -19 -47 -49 0
-13 -19 -48 -50 0
-13 -20 -21 -42 0
-13 -20 -21 -44 0
-13 -20 -22 -23 0
-13 -20 -22 -43 0
-13 -20 -22 -47 0
-13 -20 -23 -44 0
-13 -20 -23 -50 0
-13 -20 -24 -25 0
-13 -20 -24 -45 0
-13 -20 -25 -28 0
-13 -20 -25 -46 0
-13 -20 -26 -31 0
-13 -20 -26 -47 0
-13 -20 -27 -34 0
-13 -20 -27 -48 0
-13 -20 -28 -37 0
-13 -20 -28 -49 0
-13 -20 -29 -40 0
-13 -20 -29 -50 0
-13 -20 -30 -43 0
-13 -20 -31 -46 0
-13 -20 -32 -49 0
-13 -21 -22 -24 0
-13 -21 -22 -46 0
-13 -21 -22 -48 0
-13 -21 -23 -47 0
-13 -21 -24 -48 0
-13 -21 -25 -49 0
-13 -21 -26 -28 0
-13 -21 -26 -50 0
-13 -21 -27 -31 0
-13 -21 -28 -34 0
-13 -21 -29 -37 0
-13 -21 -30 -40 0
-13 -21 -31 -43 0
-13 -21 -32 -46 0
-13 -21 -33 -49 0
-13 -22 -23 -26 0
-13 -22 -23 -50 0
-13 -22 -24 -27 0
-13 -22 -25 -26 0
-13 -22 -25 -28 0
-13 -22 -26 -29 0
-13 -22 -27 -28 0
-13 -22 -27 -30 0
-13 -22 -28 -31 0
-13 -22 -29 -32 0
-13 -22 -29 -34 0
-13 -22 -30 -33 0
-13 -22 -30 -37 0
-13 -22 -31 -34 0
-13 -22 -31 -40 0
-13 -22 -32 -35 0
-13 -22 -32 -43 0
-13 -22 -33 -36 0
-13 -22 -33 -46 0
-13 -22 -34 -37 0
-13 -22 -34 -49 0
-13 -22 -35 -38 0
-13 -22 -36 -39 0
-13 -22 -37 -40 0
-13 -22 -38 -41 0
-13 -22 -39 -42 0
-13 -22 -40 -43 0
-13 -22 -41 -44 0
-13 -22 -42 -45 0
-13 -22 -43 -46 0
-13 -22 -44 -47 0
-13 -22 -45 -48 0
-13 -22 -46 -49 0
-13 -22 -47 -50 0
-13 -23 -25 -27 0
-13 -23 -29 -31 0
-13 -23 -30 -34 0
-13 -23 -31 -37 0
-13 -23 -32 -40 0
-13 -23 -33 -43 0
-13 -23 -34 -46 0
-13 -23 -35 -49 0
-13 -24 -25 -28 0
-13 -24 -28 -29 0
-13 -24 -30 -31 0
-13 -24 -31 -34 0
-13 -24 -32 -37 0
-13 -24 -33 -40 0
-13 -24 -34 -43 0
-13 -24 -35 -46 0
-13 -24 -36 -49 0
-13 -25 -26 -30 0
-13 -25 -27 -31 0
-13 -25 -28 -30 0
-13 -25 -28 -32 0
-13 -25 -29 -33 0
-13 -25 -30 -34 0
-13 -25 -31 -35 0
-13 -25 -32 -34 0
-13 -25 -32 -36 0
-13 -25 -33 -37 0
-13 -25 -34 -38 0
-13 -25 -34 -40 0
-13 -25 -35 -39 0
-13 -25 -35 -43 0
-13 -25 -36 -40 0
-13 -25 -36 -46 0
-13 -25 -37 -41 0
-13 -25 -37 -49 0
-13 -25 -38 -42 0
-13 -25 -39 -43 0
-13 -25 -40 -44 0
-13 -25 -41 -45 0
-13 -25 -42 -46 0
-13 -25 -43 -47 0
-13 -25 -44 -48 0
-13 -25 -45 -49 0
-13 -25 -46 -50 0
-13 -26 -28 -31 0
-13 -26 -31 -32 0
-13 -26 -33 -34 0
-13 -26 -34 -37 0
-13 -26 -35 -40 0
-13 -26 -36 -43 0
-13 -26 -37 -46 0
-13 -26 -38 -49 0
-13 -27 -28 -32 0
-13 -27 -31 -33 0
-13 -27 -35 -37 0
-13 -27 -36 -40 0
-13 -27 -37 -43 0
-13 -27 -38 -46 0
-13 -27 -39 -49 0
-13 -28 -29 -34 0
-13 -28 -30 -35 0
-13 -28 -31 -34 0
-13 -28 -31 -36 0
-13 -28 -32 -37 0
-13 -28 -33 -38 0
-13 -28 -34 -35 0
-13 -28 -34 -39 0
-13 -28 -35 -40 0
-13 -28 -36 -37 0
-13 -28 -36 -41 0
-13 -28 -37 -40 0
-13 -28 -37 -42 0
-13 -28 -38 -43 0
-13 -28 -39 -44 0
-13 -28 -39 -46 0
-13 -28 -40 -45 0
-13 -28 -40 -49 0
-13 -28 -41 -46 0
-13 -28 -42 -47 0
-13 -28 -43 -48 0
-13 -28 -44 -49 0
-13 -28 -45 -50 0
-13 -29 -31 -35 0
-13 -29 -34 -36 0
-13 -29 -38 -40 0
-13 -29 -39 -43 0
-13 -29 -40 -46 0
-13 -29 -41 -49 0
-13 -30 -31 -36 0
-13 -30 -34 -37 0
-13 -30 -37 -38 0
-13 -30 -39 -40 0
-13 -30 -40 -43 0
-13 -30 -41 -46 0
-13 -30 -42 -49 0
-13 -31 -32 -38 0
-13 -31 -33 -39 0
-13 -31 -34 -38 0
-13 -31 -34 -40 0
-13 -31 -35 -41 0
-13 -31 -36 -42 0
-13 -31 -37 -39 0
-13 -31 -37 -43 0
-13 -31 -38 -44 0
-13 -31 -39 -45 0
-13 -31 -40 -46 0
-13 -31 -41 -43 0
-13 -31 -41 -47 0
-13 -31 -42 -46 0
-13 -31 -42 -48 0
-13 -31 -43 -49 0
-13 -31 -44 -50 0
-13 -32 -34 -39 0
-13 -32 -37 -40 0
-13 -32 -40 -41 0
-13 -32 -42 -43 0
-13 -32 -43 -46 0
-13 -32 -44 -49 0
-13 -33 -34 -40 0
-13 -33 -37 -41 0
-13 -33 -40 -42 0
-13 -33 -44 -46 0
-13 -33 -45 -49 0
-13 -34 -35 -42 0
-13 -34 -36 -43 0
-13 -34 -37 -42 0
-13 -34 -37 -44 0
-13 -34 -38 -45 0
-13 -34 -39 -46 0
-13 -34 -40 -43 0
-13 -34 -40 -47 0
-13 -34 -41 -48 0
-13 -34 -42 -49 0
-13 -34 -43 -44 0
-13 -34 -43 -50 0
-13 -34 -45 -46 0
-13 -34 -46 -49 0
-13 -35 -37 -43 0
-13 -35 -40 -44 0
-13 -35 -43 -45 0
-13 -35 -47 -49 0
-13 -36 -37 -44 0
-13 -36 -40 -45 0
-13 -36 -43 -46 0
-13 -36 -46 -47 0
-13 -36 -48 -49 0
-13 -37 -38 -46 0
-13 -37 -39 -47 0
-13 -37 -40 -46 0
-13 -37 -40 -48 0
-13 -37 -41 -49 0
-13 -37 -42 -50 0
-13 -37 -43 -47 0
-13 -37 -46 -48 0
-13 -38 -40 -47 0
-13 -38 -43 -48 0
-13 -38 -46 -49 0
-13 -38 -49 -50 0
-13 -39 -40 -48 0
-13 -39 -43 -49 0
-13 -39 -46 -50 0
-13 -40 -41 -50 0
-13 -40 -43 -50 0
-14 -15 -16 -17 0
-14 -15 -16 -19 0
-14 -15 -16 -21 0
-14 -15 -17 -20 0
-14 -15 -17 -24 0
-14 -15 -18 -21 0
-14 -15 -18 -23 0
-14 -15 -18 -27 0
-14 -15 -19 -22 0
-14 -15 -19 -26 0
-14 -15 -19 -30 0
-14 -15 -20 -23 0
-14 -15 -20 -29 0
-14 -15 -20 -33 0
-14 -15 -21 -24 0
-14 -15 -21 -32 0
-14 -15 -21 -36 0
-14 -15 -22 -25 0
-14 -15 -22 -35 0
-14 -15 -22 -39 0
-14 -15 -23 -26 0
-14 -15 -23 -38 0
-14 -15 -23 -42 0
-14 -15 -24 -27 0
-14 -15 -24 -41 0
-14 -15 -24 -45 0
-14 -15 -25 -28 0
-14 -15 -25 -44 0
-14 -15 -25 -48 0
-14 -15 -26 -29 0
-14 -15 -26 -47 0
-14 -15 -27 -30 0
-14 -15 -27 -50 0
-14 -15 -28 -31 0
-14 -15 -29 -32 0
-14 -15 -30 -33 0
-14 -15 -31 -34 0
-14 -15 -32 -35 0
-14 -15 -33 -36 0
-14 -15 -34 -37 0
-14 -15 -35 -38 0
-14 -15 -36 -39 0
-14 -15 -37 -40 0
-14 -15 -38 -41 0
-14 -15 -39 -42 0
-14 -15 -40 -43 0
-14 -15 -41 -44 0
-14 -15 -42 -45 0
-14 -15 -43 -46 0
-14 -15 -44 -47 0
-14 -15 -45 -48 0
-14 -15 -46 -49 0
-14 -15 -47 -50 0
-14 -16 -17 -23 0
-14 -16 -17 -25 0
-14 -16 -18 -20 0
-14 -16 -18 -24 0
-14 -16 -18 -28 0
-14 -16 -19 -23 0
-14 -16 -19 -25 0
-14 -16 -19 -31 0
-14 -16 -20 -26 0
-14 -16 -20 -34 0
-14 -16 -21 -27 0
-14 -16 -21 -29 0
-14 -16 -21 -37 0
-14 -16 -22 -28 0
-14 -16 -22 -32 0
-14 -16 -22 -40 0
-14 -16 -23 -29 0
-14 -16 -23 -35 0
-14 -16 -23 -43 0
-14 -16 -24 -30 0
-14 -16 -24 -38 0
-14 -16 -24 -46 0
-14 -16 -25 -31 0
-14 -16 -25 -41 0
-14 -16 -25 -49 0
-14 -16 -26 -32 0
-14 -16 -26 -44 0
-14 -16 -27 -33 0
-14 -16 -27 -47 0
-14 -16 -28 -34 0
-14 -16 -28 -50 0
-14 -16 -29 -35 0
-14 -16 -30 -36 0
-14 -16 -31 -37 0
-14 -16 -32 -38 0
-14 -16 -33 -39 0
-14 -16 -34 -40 0
-14 -16 -35 -41 0
-14 -16 -36 -42 0
-14 -16 -37 -43 0
-14 -16 -38 -44 0
-14 -16 -39 -45 0
-14 -16 -40 -46 0
-14 -16 -41 -47 0
-14 -16 -42 -48 0
-14 -16 -43 -49 0
-14 -16 -44 -50 0
-14 -17 -18 -19 0
-14 -17 -18 -27 0
-14 -17 -18 -29 0
-14 -17 -19 -20 0
-14 -17 -19 -28 0
-14 -17 -19 -32 0
-14 -17 -20 -21 0
-14 -17 -20 -23 0
-14 -17 -20 -29 0
-14 -17 -20 -35 0
-14 -17 -21 -22 0
-14 -17 -21 -26 0
-14 -17 -21 -30 0
-14 -17 -21 -38 0
-14 -17 -22 -23 0
-14 -17 -22 -29 0
-14 -17 -22 -31 0
-14 -17 -22 -41 0
-14 -17 -23 -24 0
-14 -17 -23 -32 0
-14 -17 -23 -44 0
-14 -17 -24 -25 0
-14 -17 -24 -33 0
-14 -17 -24 -35 0
-14 -17 -24 -47 0
-14 -17 -25 -26 0
-14 -17 -25 -34 0
-14 -17 -25 -38 0
-14 -17 -25 -50 0
-14 -17 -26 -27 0
-14 -17 -26 -35 0
-14 -17 -26 -41 0
-14 -17 -27 -28 0
-14 -17 -27 -36 0
-14 -17 -27 -44 0
-14 -17 -28 -29 0
-14 -17 -28 -37 0
-14 -17 -28 -47 0
-14 -17 -29 -30 0
-14 -17 -29 -38 0
-14 -17 -29 -50 0
-14 -17 -30 -31 0
-14 -17 -30 -39 0
-14 -17 -31 -32 0
-14 -17 -31 -40 0
-14 -17 -32 -33 0
-14 -17 -32 -41 0
-14 -17 -33 -34 0
-14 -17 -33 -42 0
-14 -17 -34 -35 0
-14 -17 -34 -43 0
-14 -17 -35 -36 0
-14 -17 -35 -44 0
-14 -17 -36 -37 0
-14 -17 -36 -45 0
-14 -17 -37 -38 0
-14 -17 -37 -46 0
-14 -17 -38 -39 0
-14 -17 -38 -47 0
-14 -17 -39 -40 0
-14 -17 -39 -48 0
-14 -17 -40 -41 0
-14 -17 -40 -49 0
-14 -17 -41 -42 0
-14 -17 -41 -50 0
-14 -17 -42 -43 0
-14 -17 -43 -44 0
-14 -17 -44 -45 0
-14 -17 -45 -46 0
-14 -17 -46 -47 0
-14 -17 -47 -48 0
-14 -17 -48 -49 0
-14 -17 -49 -50 0
-14 -18 -19 -31 0
-14 -18 -19 -33 0
-14 -18 -20 -32 0
-14 -18 -20 -36 0
-14 -18 -21 -23 0
-14 -18 -21 -33 0
-14 -18 -21 -39 0
-14 -18 -22 -26 0
-14 -18 -22 -34 0
-14 -18 -22 -42 0
-14 -18 -23 -29 0
-14 -18 -23 -35 0
-14 -18 -23 -45 0
-14 -18 -24 -32 0
-14 -18 -24 -36 0
-14 -18 -24 -48 0
-14 -18 -25 -35 0
-14 -18 -25 -37 0
-14 -18 -26 -38 0
-14 -18 -27 -39 0
-14 -18 -27 -41 0
-14 -18 -28 -40 0
-14 -18 -28 -44 0
-14 -18 -29 -41 0
-14 -18 -29 -47 0
-14 -18 -30 -42 0
-14 -18 -30 -50 0
-14 -18 -31 -43 0
-14 -18 -32 -44 0
-14 -18 -33 -45 0
-14 -18 -34 -46 0
-14 -18 -35 -47 0
-14 -18 -36 -48 0
-14 -18 -37 -49 0
-14 -18 -38 -50 0
-14 -19 -20 -21 0
-14 -19 -20 -35 0
-14 -19 -20 -37 0
-14 -19 -21 -36 0
-14 -19 -21 -40 0
-14 -19 -22 -23 0
-14 -19 -22 -37 0
-14 -19 -22 -43 0
-14 -19 -23 -26 0
-14 -19 -23 -38 0
-14 -19 -23 -46 0
-14 -19 -24 -29 0
-14 -19 -24 -39 0
-14 -19 -24 -49 0
-14 -19 -25 -32 0
-14 -19 -25 -40 0
-14 -19 -26 -35 0
-14 -19 -26 -41 0
-14 -19 -27 -38 0
-14 -19 -27 -42 0
-14 -19 -28 -41 0
-14 -19 -28 -43 0
-14 -19 -29 -44 0
-14 -19 -30 -45 0
-14 -19 -30 -47 0
-14 -19 -31 -46 0
-14 -19 -31 -50 0
-14 -19 -32 -47 0
-14 -19 -33 -48 0
-14 -19 -34 -49 0
-14 -19 -35 -50 0
-14 -20 -21 -23 0
-14 -20 -21 -39 0
-14 -20 -21 -41 0
-14 -20 -22 -24 0
-14 -20 -22 -40 0
-14 -20 -22 -44 0
-14 -20 -23 -25 0
-14 -20 -23 -41 0
-14 -20 -23 -47 0
-14 -20 -24 -26 0
-14 -20 -24 -42 0
-14 -20 -24 -50 0
-14 -20 -25 -27 0
-14 -20 -25 -29 0
-14 -20 -25 -43 0
-14 -20 -26 -28 0
-14 -20 -26 -32 0
-14 -20 -26 -44 0
-14 -20 -27 -29 0
-14 -20 -27 -35 0
-14 -20 -27 -45 0
-14 -20 -28 -30 0
-14 -20 -28 -38 0
-14 -20 -28 -46 0
-14 -20 -29 -31 0
-14 -20 -29 -41 0
-14 -20 -29 -47 0
-14 -20 -30 -32 0
-14 -20 -30 -44 0
-14 -20 -30 -48 0
-14 -20 -31 -33 0
-14 -20 -31 -47 0
-14 -20 -31 -49 0
-14 -20 -32 -34 0
-14 -20 -32 -50 0
-14 -20 -33 -35 0
-14 -20 -34 -36 0
-14 -20 -35 -37 0
-14 -20 -36 -38 0
-14 -20 -37 -39 0
-14 -20 -38 -40 0
-14 -20 -39 -41 0
-14 -20 -40 -42 0
-14 -20 -41 -43 0
-14 -20 -42 -44 0
-14 -20 -43 -45 0
-14 -20 -44 -46 0
-14 -20 -45 -47 0
-14 -20 -46 -48 0
-14 -20 -47 -49 0
-14 -20 -48 -50 0
-14 -21 -22 -43 0
-14 -21 -22 -45 0
-14 -21 -23 -24 0
-14 -21 -23 -44 0
-14 -21 -23 -48 0
-14 -21 -24 -45 0
-14 -21 -25 -26 0
-14 -21 -25 -46 0
-14 -21 -26 -29 0
-14 -21 -26 -47 0
-14 -21 -27 -32 0
-14 -21 -27 -48 0
-14 -21 -28 -35 0
-14 -21 -28 -49 0
-14 -21 -29 -38 0
-14 -21 -29 -50 0
-14 -21 -30 -41 0
-14 -21 -31 -44 0
-14 -21 -32 -47 0
-14 -21 -33 -50 0
-14 -22 -23 -25 0
-14 -22 -23 -47 0
-14 -22 -23 -49 0
-14 -22 -24 -48 0
-14 -22 -25 -49 0
-14 -22 -26 -50 0
-14 -22 -27 -29 0
-14 -22 -28 -32 0
-14 -22 -29 -35 0
-14 -22 -30 -38 0
-14 -22 -31 -41 0
-14 -22 -32 -44 0
-14 -22 -33 -47 0
-14 -22 -34 -50 0
-14 -23 -24 -27 0
-14 -23 -25 -28 0
-14 -23 -26 -27 0
-14 -23 -26 -29 0
-14 -23 -27 -30 0
-14 -23 -28 -29 0
-14 -23 -28 -31 0
-14 -23 -29 -32 0
-14 -23 -30 -33 0
-14 -23 -30 -35 0
-14 -23 -31 -34 0
-14 -23 -31 -38 0
-14 -23 -32 -35 0
-14 -23 -32 -41 0
-14 -23 -33 -36 0
-14 -23 -33 -44 0
-14 -23 -34 -37 0
-14 -23 -34 -47 0
-14 -23 -35 -38 0
-14 -23 -35 -50 0
-14 -23 -36 -39 0
-14 -23 -37 -40 0
-14 -23 -38 -41 0
-14 -23 -39 -42 0
-14 -23 -40 -43 0
-14 -23 -41 -44 0
-14 -23 -42 -45 0
-14 -23 -43 -46 0
-14 -23 -44 -47 0
-14 -23 -45 -48 0
-14 -23 -46 -49 0
-14 -23 -47 -50 0
-14 -24 -26 -28 0
-14 -24 -30 -32 0
-14 -24 -31 -35 0
-14 -24 -32 -38 0
-14 -24 -33 -41 0
-14 -24 -34 -44 0
-14 -24 -35 -47 0
-14 -24 -36 -50 0
-14 -25 -26 -29 0
-14 -25 -29 -30 0
-14 -25 -31 -32 0
-14 -25 -32 -35 0
-14 -25 -33 -38 0
-14 -25 -34 -41 0
-14 -25 -35 -44 0
-14 -25 -36 -47 0
-14 -25 -37 -50 0
-14 -26 -27 -31 0
-14 -26 -28 -32 0
-14 -26 -29 -31 0
-14 -26 -29 -33 0
-14 -26 -30 -34 0
-14 -26 -31 -35 0
-14 -26 -32 -36 0
-14 -26 -33 -35 0
-14 -26 -33 -37 0
-14 -26 -34 -38 0
-14 -26 -35 -39 0
-14 -26 -35 -41 0
-14 -26 -36 -40 0
-14 -26 -36 -44 0
-14 -26 -37 -41 0
-14 -26 -37 -47 0
-14 -26 -38 -42 0
-14 -26 -38 -50 0
-14 -26 -39 -43 0
-14 -26 -40 -44 0
-14 -26 -41 -45 0
-14 -26 -42 -46 0
-14 -26 -43 -47 0
-14 -26 -44 -48 0
-14 -26 -45 -49 0
-14 -26 -46 -50 0
-14 -27 -29 -32 0
-14 -27 -32 -33 0
-14 -27 -34 -35 0
-14 -27 -35 -38 0
-14 -27 -36 -41 0
-14 -27 -37 -44 0
-14 -27 -38 -47 0
-14 -27 -39 -50 0
-14 -28 -29 -33 0
-14 -28 -32 -34 0
-14 -28 -36 -38 0
-14 -28 -37 -41 0
-14 -28 -38 -44 0
-14 -28 -39 -47 0
-14 -28 -40 -50 0
-14 -29 -30 -35 0
-14 -29 -31 -36 0
-14 -29 -32 -35 0
-14 -29 -32 -37 0
-14 -29 -33 -38 0
-14 -29 -34 -39 0
-14 -29 -35 -36 0
-14 -29 -35 -40 0
-14 -29 -36 -41 0
-14 -29 -37 -38 0
-14 -29 -37 -42 0
-14 -29 -38 -41 0
-14 -29 -38 -43 0
-14 -29 -39 -44 0
-14 -29 -40 -45 0
-14 -29 -40 -47 0
-14 -29 -41 -46 0
-14 -29 -41 -50 0
-14 -29 -42 -47 0
-14 -29 -43 -48 0
-14 -29 -44 -49 0
-14 -29 -45 -50 0
-14 -30 -32 -36 0
-14 -30 -35 -37 0
-14 -30 -39 -41 0
-14 -30 -40 -44 0
-14 -30 -41 -47 0
-14 -30 -42 -50 0
-14 -31 -32 -37 0
-14 -31 -35 -38 0
-14 -31 -38 -39 0
-14 -31 -40 -41 0
-14 -31 -41 -44 0
-14 -31 -42 -47 0
-14 -31 -43 -50 0
-14 -32 -33 -39 0
-14 -32 -34 -40 0
-14 -32 -35 -39 0
-14 -32 -35 -41 0
-14 -32 -36 -42 0
-14 -32 -37 -43 0
-14 -32 -38 -40 0
-14 -32 -38 -44 0
-14 -32 -39 -45 0
-14 -32 -40 -46 0
-14 -32 -41 -47 0
-14 -32 -42 -44 0
-14 -32 -42 -48 0
-14 -32 -43 -47 0
-14 -32 -43 -49 0
-14 -32 -44 -50 0
-14 -33 -35 -40 0
-14 -33 -38 -41 0
-14 -33 -41 -42 0
-14 -33 -43 -44 0
-14 -33 -44 -47 0
-14 -33 -45 -50 0
-14 -34 -35 -41 0
-14 -34 -38 -42 0
-14 -34 -41 -43 0
-14 -34 -45 -47 0
-14 -34 -46 -50 0
-14 -35 -36 -43 0
-14 -35 -37 -44 0
-14 -35 -38 -43 0
-14 -35 -38 -45 0
-14 -35 -39 -46 0
-14 -35 -40 -47 0
-14 -35 -41 -44 0
-14 -35 -41 -48 0
-14 -35 -42 -49 0
-14 -35 -43 -50 0
-14 -35 -44 -45 0
-14 -35 -46 -47 0
-14 -35 -47 -50 0
-14 -36 -38 -44 0
-14 -36 -41 -45 0
-14 -36 -44 -46 0
-14 -36 -48 -50 0
-14 -37 -38 -45 0
-14 -37 -41 -46 0
-14 -37 -44 -47 0
-14 -37 -47 -48 0
-14 -37 -49 -50 0
-14 -38 -39 -47 0
-14 -38 -40 -48 0
-14 -38 -41 -47 0
-14 -38 -41 -49 0
-14 -38 -42 -50 0
-14 -38 -44 -48 0
-14 -38 -47 -49 0
-14 -39 -41 -48 0
-14 -39 -44 -49 0
-14 -39 -47 -50 0
-14 -40 -41 -49 0
-14 -40 -44 -50 0
-15 -16 -17 -18 0
-15 -16 -17 -20 0
-15 -16 -17 -22 0
-15 -16 -18 -21 0
-15 -16 -18 -25 0
-15 -16 -19 -22 0
-15 -16 -19 -24 0
-15 -16 -19 -28 0
-15 -16 -20 -23 0
-15 -16 -20 -27 0
-15 -16 -20 -31 0
-15 -16 -21 -24 0
-15 -16 -21 -30 0
-15 -16 -21 -34 0
-15 -16 -22 -25 0
-15 -16 -22 -33 0
-15 -16 -22 -37 0
-15 -16 -23 -26 0
-15 -16 -23 -36 0
-15 -16 -23 -40 0
-15 -16 -24 -27 0
-15 -16 -24 -39 0
-15 -16 -24 -43 0
-15 -16 -25 -28 0
-15 -16 -25 -42 0
-15 -16 -25 -46 0
-15 -16 -26 -29 0
-15 -16 -26 -45 0
-15 -16 -26 -49 0
-15 -16 -27 -30 0
-15 -16 -27 -48 0
-15 -16 -28 -31 0
-15 -16 -29 -32 0
-15 -16 -30 -33 0
-15 -16 -31 -34 0
-15 -16 -32 -35 0
-15 -16 -33 -36 0
-15 -16 -34 -37 0
-15 -16 -35 -38 0
-15 -16 -36 -39 0
-15 -16 -37 -40 0
-15 -16 -38 -41 0
-15 -16 -39 -42 0
-15 -16 -40 -43 0
-15 -16 -41 -44 0
-15 -16 -42 -45 0
-15 -16 -43 -46 0
-15 -16 -44 -47 0
-15 -16 -45 -48 0
-15 -16 -46 -49 0
-15 -16 -47 -50 0
-15 -17 -18 -24 0
-15 -17 -18 -26 0
-15 -17 -19 -21 0
-15 -17 -19 -25 0
-15 -17 -19 -29 0
-15 -17 -20 -24 0
-15 -17 -20 -26 0
-15 -17 -20 -32 0
-15 -17 -21 -27 0
-15 -17 -21 -35 0
-15 -17 -22 -28 0
-15 -17 -22 -30 0
-15 -17 -22 -38 0
-15 -17 -23 -29 0
-15 -17 -23 -33 0
-15 -17 -23 -41 0
-15 -17 -24 -30 0
-15 -17 -24 -36 0
-15 -17 -24 -44 0
-15 -17 -25 -31 0
-15 -17 -25 -39 0
-15 -17 -25 -47 0
-15 -17 -26 -32 0
-15 -17 -26 -42 0
-15 -17 -26 -50 0
-15 -17 -27 -33 0
-15 -17 -27 -45 0
-15 -17 -28 -34 0
-15 -17 -28 -48 0
-15 -17 -29 -35 0
-15 -17 -30 -36 0
-15 -17 -31 -37 0
-15 -17 -32 -38 0
-15 -17 -33 -39 0
-15 -17 -34 -40 0
-15 -17 -35 -41 0
-15 -17 -36 -42 0
-15 -17 -37 -43 0
-15 -17 -38 -44 0
-15 -17 -39 -45 0
-15 -17 -40 -46 0
-15 -17 -41 -47 0
-15 -17 -42 -48 0
-15 -17 -43 -49 0
-15 -17 -44 -50 0
-15 -18 -19 -20 0
-15 -18 -19 -28 0
-15 -18 -19 -30 0
-15 -18 -20 -21 0
-15 -18 -20 -29 0
-15 -18 -20 -33 0
-15 -18 -21 -22 0
-15 -18 -21 -24 0
-15 -18 -21 -30 0
-15 -18 -21 -36 0
-15 -18 -22 -23 0
-15 -18 -22 -27 0
-15 -18 -22 -31 0
-15 -18 -22 -39 0
-15 -18 -23 -24 0
-15 -18 -23 -30 0
-15 -18 -23 -32 0
-15 -18 -23 -42 0
-15 -18 -24 -25 0
-15 -18 -24 -33 0
-15 -18 -24 -45 0
-15 -18 -25 -26 0
-15 -18 -25 -34 0
-15 -18 -25 -36 0
-15 -18 -25 -48 0
-15 -18 -26 -27 0
-15 -18 -26 -35 0
-15 -18 -26 -39 0
-15 -18 -27 -28 0
-15 -18 -27 -36 0
-15 -18 -27 -42 0
-15 -18 -28 -29 0
-15 -18 -28 -37 0
-15 -18 -28 -45 0
-15 -18 -29 -30 0
-15 -18 -29 -38 0
-15 -18 -29 -48 0
-15 -18 -30 -31 0
-15 -18 -30 -39 0
-15 -18 -31 -32 0
-15 -18 -31 -40 0
-15 -18 -32 -33 0
-15 -18 -32 -41 0
-15 -18 -33 -34 0
-15 -18 -33 -42 0
-15 -18 -34 -35 0
-15 -18 -34 -43 0
-15 -18 -35 -36 0
-15 -18 -35 -44 0
-15 -18 -36 -37 0
-15 -18 -36 -45 0
-15 -18 -37 -38 0
-15 -18 -37 -46 0
-15 -18 -38 -39 0
-15 -18 -38 -47 0
-15 -18 -39 -40 0
-15 -18 -39 -48 0
-15 -18 -40 -41 0
-15 -18 -40 -49 0
-15 -18 -41 -42 0
-15 -18 -41 -50 0
-15 -18 -42 -43 0
-15 -18 -43 -44 0
-15 -18 -44 -45 0
-15 -18 -45 -46 0
-15 -18 -46 -47 0
-15 -18 -47 -48 0
-15 -18 -48 -49 0
-15 -18 -49 -50 0
-15 -19 -20 -32 0
-15 -19 -20 -34 0
-15 -19 -21 -33 0
-15 -19 -21 -37 0
-15 -19 -22 -24 0
-15 -19 -22 -34 0
-15 -19 -22 -40 0
-15 -19 -23 -27 0
-15 -19 -23 -35 0
-15 -19 -23 -43 0
-15 -19 -24 -30 0
-15 -19 -24 -36 0
-15 -19 -24 -46 0
-15 -19 -25 -33 0
-15 -19 -25 -37 0
-15 -19 -25 -49 0
-15 -19 -26 -36 0
-15 -19 -26 -38 0
-15 -19 -27 -39 0
-15 -19 -28 -40 0
-15 -19 -28 -42 0
-15 -19 -29 -41 0
-15 -19 -29 -45 0
-15 -19 -30 -42 0
-15 -19 -30 -48 0
-15 -19 -31 -43 0
-15 -19 -32 -44 0
-15 -19 -33 -45 0
-15 -19 -34 -46 0
-15 -19 -35 -47 0
-15 -19 -36 -48 0
-15 -19 -37 -49 0
-15 -19 -38 -50 0
-15 -20 -21 -22 0
-15 -20 -21 -36 0
-15 -20 -21 -38 0
-15 -20 -22 -37 0
-15 -20 -22 -41 0
-15 -20 -23 -24 0
-15 -20 -23 -38 0
-15 -20 -23 -44 0
-15 -20 -24 -27 0
-15 -20 -24 -39 0
-15 -20 -24 -47 0
-15 -20 -25 -30 0
-15 -20 -25 -40 0
-15 -20 -25 -50 0
-15 -20 -26 -33 0
-15 -20 -26 -41 0
-15 -20 -27 -36 0
-15 -20 -27 -42 0
-15 -20 -28 -39 0
-15 -20 -28 -43 0
-15 -20 -29 -42 0
-15 -20 -29 -44 0
-15 -20 -30 -45 0
-15 -20 -31 -46 0
-15 -20 -31 -48 0
-15 -20 -32 -47 0
-15 -20 -33 -48 0
-15 -20 -34 -49 0
-15 -20 -35 -50 0
-15 -21 -22 -24 0
-15 -21 -22 -40 0
-15 -21 -22 -42 0
-15 -21 -23 -25 0
-15 -21 -23 -41 0
-15 -21 -23 -45 0
-15 -21 -24 -26 0
-15 -21 -24 -42 0
-15 -21 -24 -48 0
-15 -21 -25 -27 0
-15 -21 -25 -43 0
-15 -21 -26 -28 0
-15 -21 -26 -30 0
-15 -21 -26 -44 0
-15 -21 -27 -29 0
-15 -21 -27 -33 0
-15 -21 -27 -45 0
-15 -21 -28 -30 0
-15 -21 -28 -36 0
-15 -21 -28 -46 0
-15 -21 -29 -31 0
-15 -21 -29 -39 0
-15 -21 -29 -47 0
-15 -21 -30 -32 0
-15 -21 -30 -42 0
-15 -21 -30 -48 0
-15 -21 -31 -33 0
-15 -21 -31 -45 0
-15 -21 -31 -49 0
-15 -21 -32 -34 0
-15 -21 -32 -48 0
-15 -21 -32 -50 0
-15 -21 -33 -35 0
-15 -21 -34 -36 0
-15 -21 -35 -37 0
-15 -21 -36 -38 0
-15 -21 -37 -39 0
-15 -21 -38 -40 0
-15 -21 -39 -41 0
-15 -21 -40 -42 0
-15 -21 -41 -43 0
-15 -21 -42 -44 0
-15 -21 -43 -45 0
-15 -21 -44 -46 0
-15 -21 -45 -47 0
-15 -21 -46 -48 0
-15 -21 -47 -49 0
-15 -21 -48 -50 0
-15 -22 -23 -44 0
-15 -22 -23 -46 0
-15 -22 -24 -25 0
-15 -22 -24 -45 0
-15 -22 -24 -49 0
-15 -22 -25 -46 0
-15 -22 -26 -27 0
-15 -22 -26 -47 0
-15 -22 -27 -30 0
-15 -22 -27 -48 0
-15 -22 -28 -33 0
-15 -22 -28 -49 0
-15 -22 -29 -36 0
-15 -22 -29 -50 0
-15 -22 -30 -39 0
-15 -22 -31 -42 0
-15 -22 -32 -45 0
-15 -22 -33 -48 0
-15 -23 -24 -26 0
-15 -23 -24 -48 0
-15 -23 -24 -50 0
-15 -23 -25 -49 0
-15 -23 -26 -50 0
-15 -23 -28 -30 0
-15 -23 -29 -33 0
-15 -23 -30 -36 0
-15 -23 -31 -39 0
-15 -23 -32 -42 0
-15 -23 -33 -45 0
-15 -23 -34 -48 0
-15 -24 -25 -28 0
-15 -24 -26 -29 0
-15 -24 -27 -28 0
-15 -24 -27 -30 0
-15 -24 -28 -31 0
-15 -24 -29 -30 0
-15 -24 -29 -32 0
-15 -24 -30 -33 0
-15 -24 -31 -34 0
-15 -24 -31 -36 0
-15 -24 -32 -35 0
-15 -24 -32 -39 0
-15 -24 -33 -36 0
-15 -24 -33 -42 0
-15 -24 -34 -37 0
-15 -24 -34 -45 0
-15 -24 -35 -38 0
-15 -24 -35 -48 0
-15 -24 -36 -39 0
-15 -24 -37 -40 0
-15 -24 -38 -41 0
-15 -24 -39 -42 0
-15 -24 -40 -43 0
-15 -24 -41 -44 0
-15 -24 -42 -45 0
-15 -24 -43 -46 0
-15 -24 -44 -47 0
-15 -24 -45 -48 0
-15 -24 -46 -49 0
-15 -24 -47 -50 0
-15 -25 -27 -29 0
-15 -25 -31 -33 0
-15 -25 -32 -36 0
-15 -25 -33 -39 0
-15 -25 -34 -42 0
-15 -25 -35 -45 0
-15 -25 -36 -48 0
-15 -26 -27 -30 0
-15 -26 -30 -31 0
-15 -26 -32 -33 0
-15 -26 -33 -36 0
-15 -26 -34 -39 0
-15 -26 -35 -42 0
-15 -26 -36 -45 0
-15 -26 -37 -48 0
-15 -27 -28 -32 0
-15 -27 -29 -33 0
-15 -27 -30 -32 0
-15 -27 -30 -34 0
-15 -27 -31 -35 0
-15 -27 -32 -36 0
-15 -27 -33 -37 0
-15 -27 -34 -36 0
-15 -27 -34 -38 0
-15 -27 -35 -39 0
-15 -27 -36 -40 0
-15 -27 -36 -42 0
-15 -27 -37 -41 0
-15 -27 -37 -45 0
-15 -27 -38 -42 0
-15 -27 -38 -48 0
-15 -27 -39 -43 0
-15 -27 -40 -44 0
-15 -27 -41 -45 0
-15 -27 -42 -46 0
-15 -27 -43 -47 0
-15 -27 -44 -48 0
-15 -27 -45 -49 0
-15 -27 -46 -50 0
-15 -28 -30 -33 0
-15 -28 -33 -34 0
-15 -28 -35 -36 0
-15 -28 -36 -39 0
-15 -28 -37 -42 0
-15 -28 -38 -45 0
-15 -28 -39 -48 0
-15 -29 -30 -34 0
-15 -29 -33 -35 0
-15 -29 -37 -39 0
-15 -29 -38 -42 0
-15 -29 -39 -45 0
-15 -29 -40 -48 0
-15 -30 -31 -36 0
-15 -30 -32 -37 0
-15 -30 -33 -36 0
-15 -30 -33 -38 0
-15 -30 -34 -39 0
-15 -30 -35 -40 0
-15 -30 -36 -37 0
-15 -30 -36 -41 0
-15 -30 -37 -42 0
-15 -30 -38 -39 0
-15 -30 -38 -43 0
-15 -30 -39 -42 0
-15 -30 -39 -44 0
-15 -30 -40 -45 0
-15 -30 -41 -46 0
-15 -30 -41 -48 0
-15 -30 -42 -47 0
-15 -30 -43 -48 0
-15 -30 -44 -49 0
-15 -30 -45 -50 0
-15 -31 -33 -37 0
-15 -31 -36 -38 0
-15 -31 -40 -42 0
-15 -31 -41 -45 0
-15 -31 -42 -48 0
-15 -32 -33 -38 0
-15 -32 -36 -39 0
-15 -32 -39 -40 0
-15 -32 -41 -42 0
-15 -32 -42 -45 0
-15 -32 -43 -48 0
-15 -33 -34 -40 0
-15 -33 -35 -41 0
-15 -33 -36 -40 0
-15 -33 -36 -42 0
-15 -33 -37 -43 0
-15 -33 -38 -44 0
-15 -33 -39 -41 0
-15 -33 -39 -45 0
-15 -33 -40 -46 0
-15 -33 -41 -47 0
-15 -33 -42 -48 0
-15 -33 -43 -45 0
-15 -33 -43 -49 0
-15 -33 -44 -48 0
-15 -33 -44 -50 0
-15 -34 -36 -41 0
-15 -34 -39 -42 0
-15 -34 -42 -43 0
-15 -34 -44 -45 0
-15 -34 -45 -48 0
-15 -35 -36 -42 0
-15 -35 -39 -43 0
-15 -35 -42 -44 0
-15 -35 -46 -48 0
-15 -36 -37 -44 0
-15 -36 -38 -45 0
-15 -36 -39 -44 0
-15 -36 -39 -46 0
-15 -36 -40 -47 0
-15 -36 -41 -48 0
-15 -36 -42 -45 0
-15 -36 -42 -49 0
-15 -36 -43 -50 0
-15 -36 -45 -46 0
-15 -36 -47 -48 0
-15 -37 -39 -45 0
-15 -37 -42 -46 0
-15 -37 -45 -47 0
-15 -38 -39 -46 0
-15 -38 -42 -47 0
-15 -38 -45 -48 0
-15 -38 -48 -49 0
-15 -39 -40 -48 0
-15 -39 -41 -49 0
-15 -39 -42 -48 0
-15 -39 -42 -50 0
-15 -39 -45 -49 0
-15 -39 -48 -50 0
-15 -40 -42 -49 0
-15 -40 -45 -50 0
-15 -41 -42 -50 0
-16 -17 -18 -19 0
-16 -17 -18 -21 0
-16 -17 -18 -23 0
-16 -17 -19 -22 0
-16 -17 -19 -26 0
-16 -17 -20 -23 0
-16 -17 -20 -25 0
-16 -17 -20 -29 0
-16 -17 -21 -24 0
-16 -17 -21 -28 0
-16 -17 -21 -32 0
-16 -17 -22 -25 0
-16 -17 -22 -31 0
-16 -17 -22 -35 0
-16 -17 -23 -26 0
-16 -17 -23 -34 0
-16 -17 -23 -38 0
-16 -17 -24 -27 0
-16 -17 -24 -37 0
-16 -17 -24 -41 0
-16 -17 -25 -28 0
-16 -17 -25 -40 0
-16 -17 -25 -44 0
-16 -17 -26 -29 0
-16 -17 -26 -43 0
-16 -17 -26 -47 0
-16 -17 -27 -30 0
-16 -17 -27 -46 0
-16 -17 -27 -50 0
-16 -17 -28 -31 0
-16 -17 -28 -49 0
-16 -17 -29 -32 0
-16 -17 -30 -33 0
-16 -17 -31 -34 0
-16 -17 -32 -35 0
-16 -17 -33 -36 0
-16 -17 -34 -37 0
-16 -17 -35 -38 0
-16 -17 -36 -39 0
-16 -17 -37 -40 0
-16 -17 -38 -41 0
-16 -17 -39 -42 0
-16 -17 -40 -43 0
-16 -17 -41 -44 0
-16 -17 -42 -45 0
-16 -17 -43 -46 0
-16 -17 -44 -47 0
-16 -17 -45 -48 0
-16 -17 -46 -49 0
-16 -17 -47 -50 0
-16 -18 -19 -25 0
-16 -18 -19 -27 0
-16 -18 -20 -22 0
-16 -18 -20 -26 0
-16 -18 -20 -30 0
-16 -18 -21 -25 0
-16 -18 -21 -27 0
-16 -18 -21 -33 0
-16 -18 -22 -28 0
-16 -18 -22 -36 0
-16 -18 -23 -29 0
-16 -18 -23 -31 0
-16 -18 -23 -39 0
-16 -18 -24 -30 0
-16 -18 -24 -34 0
-16 -18 -24 -42 0
-16 -18 -25 -31 0
-16 -18 -25 -37 0
-16 -18 -25 -45 0
-16 -18 -26 -32 0
-16 -18 -26 -40 0
-16 -18 -26 -48 0
-16 -18 -27 -33 0
-16 -18 -27 -43 0
-16 -18 -28 -34 0
-16 -18 -28 -46 0
-16 -18 -29 -35 0
-16 -18 -29 -49 0
-16 -18 -30 -36 0
-16 -18 -31 -37 0
-16 -18 -32 -38 0
-16 -18 -33 -39 0
-16 -18 -34 -40 0
-16 -18 -35 -41 0
-16 -18 -36 -42 0
-16 -18 -37 -43 0
-16 -18 -38 -44 0
-16 -18 -39 -45 0
-16 -18 -40 -46 0
-16 -18 -41 -47 0
-16 -18 -42 -48 0
-16 -18 -43 -49 0
-16 -18 -44 -50 0
-16 -19 -20 -21 0
-16 -19 -20 -29 0
-16 -19 -20 -31 0
-16 -19 -21 -22 0
-16 -19 -21 -30 0
-16 -19 -21 -34 0
-16 -19 -22 -23 0
-16 -19 -22 -25 0
-16 -19 -22 -31 0
-16 -19 -22 -37 0
-16 -19 -23 -24 0
-16 -19 -23 -28 0
-16 -19 -23 -32 0
-16 -19 -23 -40 0
-16 -19 -24 -25 0
-16 -19 -24 -31 0
-16 -19 -24 -33 0
-16 -19 -24 -43 0
-16 -19 -25 -26 0
-16 -19 -25 -34 0
-16 -19 -25 -46 0
-16 -19 -26 -27 0
-16 -19 -26 -35 0
-16 -19 -26 -37 0
-16 -19 -26 -49 0
-16 -19 -27 -28 0
-16 -19 -27 -36 0
-16 -19 -27 -40 0
-16 -19 -28 -29 0
-16 -19 -28 -37 0
-16 -19 -28 -43 0
-16 -19 -29 -30 0
-16 -19 -29 -38 0
-16 -19 -29 -46 0
-16 -19 -30 -31 0
-16 -19 -30 -39 0
-16 -19 -30 -49 0
-16 -19 -31 -32 0
-16 -19 -31 -40 0
-16 -19 -32 -33 0
-16 -19 -32 -41 0
-16 -19 -33 -34 0
-16 -19 -33 -42 0
-16 -19 -34 -35 0
-16 -19 -34 -43 0
-16 -19 -35 -36 0
-16 -19 -35 -44 0
-16 -19 -36 -37 0
-16 -19 -36 -45 0
-16 -19 -37 -38 0
-16 -19 -37 -46 0
-16 -19 -38 -39 0
-16 -19 -38 -47 0
-16 -19 -39 -40 0
-16 -19 -39 -48 0
-16 -19 -40 -41 0
-16 -19 -40 -49 0
-16 -19 -41 -42 0
-16 -19 -41 -50 0
-16 -19 -42 -43 0
-16 -19 -43 -44 0
-16 -19 -44 -45 0
-16 -19 -45 -46 0
-16 -19 -46 -47 0
-16 -19 -47 -48 0
-16 -19 -48 -49 0
-16 -19 -49 -50 0
-16 -20 -21 -33 0
-16 -20 -21 -35 0
-16 -20 -22 -34 0
-16 -20 -22 -38 0
-16 -20 -23 -25 0
-16 -20 -23 -35 0
-16 -20 -23 -41 0
-16 -20 -24 -28 0
-16 -20 -24 -36 0
-16 -20 -24 -44 0
-16 -20 -25 -31 0
-16 -20 -25 -37 0
-16 -20 -25 -47 0
-16 -20 -26 -34 0
-16 -20 -26 -38 0
-16 -20 -26 -50 0
-16 -20 -27 -37 0
-16 -20 -27 -39 0
-16 -20 -28 -40 0
-16 -20 -29 -41 0
-16 -20 -29 -43 0
-16 -20 -30 -42 0
-16 -20 -30 -46 0
-16 -20 -31 -43 0
-16 -20 -31 -49 0
-16 -20 -32 -44 0
-16 -20 -33 -45 0
-16 -20 -34 -46 0
-16 -20 -35 -47 0
-16 -20 -36 -48 0
-16 -20 -37 -49 0
-16 -20 -38 -50 0
-16 -21 -22 -23 0
-16 -21 -22 -37 0
-16 -21 -22 -39 0
-16 -21 -23 -38 0
-16 -21 -23 -42 0
-16 -21 -24 -25 0
-16 -21 -24 -39 0
-16 -21 -24 -45 0
-16 -21 -25 -28 0
-16 -21 -25 -40 0
-16 -21 -25 -48 0
-16 -21 -26 -31 0
-16 -21 -26 -41 0
-16 -21 -27 -34 0
-16 -21 -27 -42 0
-16 -21 -28 -37 0
-16 -21 -28 -43 0
-16 -21 -29 -40 0
-16 -21 -29 -44 0
-16 -21 -30 -43 0
-16 -21 -30 -45 0
-16 -21 -31 -46 0
-16 -21 -32 -47 0
-16 -21 -32 -49 0
-16 -21 -33 -48 0
-16 -21 -34 -49 0
-16 -21 -35 -50 0
-16 -22 -23 -25 0
-16 -22 -23 -41 0
-16 -22 -23 -43 0
-16 -22 -24 -26 0
-16 -22 -24 -42 0
-16 -22 -24 -46 0
-16 -22 -25 -27 0
-16 -22 -25 -43 0
-16 -22 -25 -49 0
-16 -22 -26 -28 0
-16 -22 -26 -44 0
-16 -22 -27 -29 0
-16 -22 -27 -31 0
-16 -22 -27 -45 0
-16 -22 -28 -30 0
-16 -22 -28 -34 0
-16 -22 -28 -46 0
-16 -22 -29 -31 0
-16 -22 -29 -37 0
-16 -22 -29 -47 0
-16 -22 -30 -32 0
-16 -22 -30 -40 0
-16 -22 -30 -48 0
-16 -22 -31 -33 0
-16 -22 -31 -43 0
-16 -22 -31 -49 0
-16 -22 -32 -34 0
-16 -22 -32 -46 0
-16 -22 -32 -50 0
-16 -22 -33 -35 0
-16 -22 -33 -49 0
-16 -22 -34 -36 0
-16 -22 -35 -37 0
-16 -22 -36 -38 0
-16 -22 -37 -39 0
-16 -22 -38 -40 0
-16 -22 -39 -41 0
-16 -22 -40 -42 0
-16 -22 -41 -43 0
-16 -22 -42 -44 0
-16 -22 -43 -45 0
-16 -22 -44 -46 0
-16 -22 -45 -47 0
-16 -22 -46 -48 0
-16 -22 -47 -49 0
-16 -22 -48 -50 0
-16 -23 -24 -45 0
-16 -23 -24 -47 0
-16 -23 -25 -26 0
-16 -23 -25 -46 0
-16 -23 -25 -50 0
-16 -23 -26 -47 0
-16 -23 -27 -28 0
-16 -23 -27 -48 0
-16 -23 -28 -31 0
-16 -23 -28 -49 0
-16 -23 -29 -34 0
-16 -23 -29 -50 0
-16 -23 -30 -37 0
-16 -23 -31 -40 0
-16 -23 -32 -43 0
-16 -23 -33 -46 0
-16 -23 -34 -49 0
-16 -24 -25 -27 0
-16 -24 -25 -49 0
-16 -24 -26 -50 0
-16 -24 -29 -31 0
-16 -24 -30 -34 0
-16 -24 -31 -37 0
-16 -24 -32 -40 0
-16 -24 -33 -43 0
-16 -24 -34 -46 0
-16 -24 -35 -49 0
-16 -25 -26 -29 0
-16 -25 -27 -30 0
-16 -25 -28 -29 0
-16 -25 -28 -31 0
-16 -25 -29 -32 0
-16 -25 -30 -31 0
-16 -25 -30 -33 0
-16 -25 -31 -34 0
-16 -25 -32 -35 0
-16 -25 -32 -37 0
-16 -25 -33 -36 0
-16 -25 -33 -40 0
-16 -25 -34 -37 0
-16 -25 -34 -43 0
-16 -25 -35 -38 0
-16 -25 -35 -46 0
-16 -25 -36 -39 0
-16 -25 -36 -49 0
-16 -25 -37 -40 0
-16 -25 -38 -41 0
-16 -25 -39 -42 0
-16 -25 -40 -43 0
-16 -25 -41 -44 0
-16 -25 -42 -45 0
-16 -25 -43 -46 0
-16 -25 -44 -47 0
-16 -25 -45 -48 0
-16 -25 -46 -49 0
-16 -25 -47 -50 0
-16 -26 -28 -30 0
-16 -26 -32 -34 0
-16 -26 -33 -37 0
-16 -26 -34 -40 0
-16 -26 -35 -43 0
-16 -26 -36 -46 0
-16 -26 -37 -49 0
-16 -27 -28 -31 0
-16 -27 -31 -32 0
-16 -27 -33 -34 0
-16 -27 -34 -37 0
-16 -27 -35 -40 0
-16 -27 -36 -43 0
-16 -27 -37 -46 0
-16 -27 -38 -49 0
-16 -28 -29 -33 0
-16 -28 -30 -34 0
-16 -28 -31 -33 0
-16 -28 -31 -35 0
-16 -28 -32 -36 0
-16 -28 -33 -37 0
-16 -28 -34 -38 0
-16 -28 -35 -37 0
-16 -28 -35 -39 0
-16 -28 -36 -40 0
-16 -28 -37 -41 0
-16 -28 -37 -43 0
-16 -28 -38 -42 0
-16 -28 -38 -46 0
-16 -28 -39 -43 0
-16 -28 -39 -49 0
-16 -28 -40 -44 0
-16 -28 -41 -45 0
-16 -28 -42 -46 0
-16 -28 -43 -47 0
-16 -28 -44 -48 0
-16 -28 -45 -49 0
-16 -28 -46 -50 0
-16 -29 -31 -34 0
-16 -29 -34 -35 0
-16 -29 -36 -37 0
-16 -29 -37 -40 0
-16 -29 -38 -43 0
-16 -29 -39 -46 0
-16 -29 -40 -49 0
-16 -30 -31 -35 0
-16 -30 -34 -36 0
-16 -30 -38 -40 0
-16 -30 -39 -43 0
-16 -30 -40 -46 0
-16 -30 -41 -49 0
-16 -31 -32 -37 0
-16 -31 -33 -38 0
-16 -31 -34 -37 0
-16 -31 -34 -39 0
-16 -31 -35 -40 0
-16 -31 -36 -41 0
-16 -31 -37 -38 0
-16 -31 -37 -42 0
-16 -31 -38 -43 0
-16 -31 -39 -40 0
-16 -31 -39 -44 0
-16 -31 -40 -43 0
-16 -31 -40 -45 0
-16 -31 -41 -46 0
-16 -31 -42 -47 0
-16 -31 -42 -49 0
-16 -31 -43 -48 0
-16 -31 -44 -49 0
-16 -31 -45 -50 0
-16 -32 -34 -38 0
-16 -32 -37 -39 0
-16 -32 -41 -43 0
-16 -32 -42 -46 0
-16 -32 -43 -49 0
-16 -33 -34 -39 0
-16 -33 -37 -40 0
-16 -33 -40 -41 0
-16 -33 -42 -43 0
-16 -33 -43 -46 0
-16 -33 -44 -49 0
-16 -34 -35 -41 0
-16 -34 -36 -42 0
-16 -34 -37 -41 0
-16 -34 -37 -43 0
-16 -34 -38 -44 0
-16 -34 -39 -45 0
-16 -34 -40 -42 0
-16 -34 -40 -46 0
-16 -34 -41 -47 0
-16 -34 -42 -48 0
-16 -34 -43 -49 0
-16 -34 -44 -46 0
-16 -34 -44 -50 0
-16 -34 -45 -49 0
-16 -35 -37 -42 0
-16 -35 -40 -43 0
-16 -35 -43 -44 0
-16 -35 -45 -46 0
-16 -35 -46 -49 0
-16 -36 -37 -43 0
-16 -36 -40 -44 0
-16 -36 -43 -45 0
-16 -36 -47 -49 0
-16 -37 -38 -45 0
-16 -37 -39 -46 0
-16 -37 -40 -45 0
-16 -37 -40 -47 0
-16 -37 -41 -48 0
-16 -37 -42 -49 0
-16 -37 -43 -46 0
-16 -37 -43 -50 0
-16 -37 -46 -47 0
-16 -37 -48 -49 0
-16 -38 -40 -46 0
-16 -38 -43 -47 0
-16 -38 -46 -48 0
-16 -39 -40 -47 0
-16 -39 -43 -48 0
-16 -39 -46 -49 0
-16 -39 -49 -50 0
-16 -40 -41 -49 0
-16 -40 -42 -50 0
-16 -40 -43 -49 0
-16 -40 -46 -50 0
-16 -41 -43 -50 0
-17 -18 -19 -20 0
-17 -18 -19 -22 0
-17 -18 -19 -24 0
-17 -18 -20 -23 0
-17 -18 -20 -27 0
-17 -18 -21 -24 0
-17 -18 -21 -26 0
-17 -18 -21 -30 0
-17 -18 -22 -25 0
-17 -18 -22 -29 0
-17 -18 -22 -33 0
-17 -18 -23 -26 0
-17 -18 -23 -32 0
-17 -18 -23 -36 0
-17 -18 -24 -27 0
-17 -18 -24 -35 0
-17 -18 -24 -39 0
-17 -18 -25 -28 0
-17 -18 -25 -38 0
-17 -18 -25 -42 0
-17 -18 -26 -29 0
-17 -18 -26 -41 0
-17 -18 -26 -45 0
-17 -18 -27 -30 0
-17 -18 -27 -44 0
-17 -18 -27 -48 0
-17 -18 -28 -31 0
-17 -18 -28 -47 0
-17 -18 -29 -32 0
-17 -18 -29 -50 0
-17 -18 -30 -33 0
-17 -18 -31 -34 0
-17 -18 -32 -35 0
-17 -18 -33 -36 0
-17 -18 -34 -37 0
-17 -18 -35 -38 0
-17 -18 -36 -39 0
-17 -18 -37 -40 0
-17 -18 -38 -41 0
-17 -18 -39 -42 0
-17 -18 -40 -43 0
-17 -18 -41 -44 0
-17 -18 -42 -45 0
-17 -18 -43 -46 0
-17 -18 -44 -47 0
-17 -18 -45 -48 0
-17 -18 -46 -49 0
-17 -18 -47 -50 0
-17 -19 -20 -26 0
-17 -19 -20 -28 0
-17 -19 -21 -23 0
-17 -19 -21 -27 0
-17 -19 -21 -31 0
-17 -19 -22 -26 0
-17 -19 -22 -28 0
-17 -19 -22 -34 0
-17 -19 -23 -29 0
-17 -19 -23 -37 0
-17 -19 -24 -30 0
-17 -19 -24 -32 0
-17 -19 -24 -40 0
-17 -19 -25 -31 0
-17 -19 -25 -35 0
-17 -19 -25 -43 0
-17 -19 -26 -32 0
-17 -19 -26 -38 0
-17 -19 -26 -46 0
-17 -19 -27 -33 0
-17 -19 -27 -41 0
-17 -19 -27 -49 0
-17 -19 -28 -34 0
-17 -19 -28 -44 0
-17 -19 -29 -35 0
-17 -19 -29 -47 0
-17 -19 -30 -36 0
-17 -19 -30 -50 0
-17 -19 -31 -37 0
-17 -19 -32 -38 0
-17 -19 -33 -39 0
-17 -19 -34 -40 0
-17 -19 -35 -41 0
-17 -19 -36 -42 0
-17 -19 -37 -43 0
-17 -19 -38 -44 0
-17 -19 -39 -45 0
-17 -19 -40 -46 0
-17 -19 -41 -47 0
-17 -19 -42 -48 0
-17 -19 -43 -49 0
-17 -19 -44 -50 0
-17 -20 -21 -22 0
-17 -20 -21 -30 0
-17 -20 -21 -32 0
-17 -20 -22 -23 0
-17 -20 -22 -31 0
-17 -20 -22 -35 0
-17 -20 -23 -24 0
-17 -20 -23 -26 0
-17 -20 -23 -32 0
-17 -20 -23 -38 0
-17 -20 -24 -25 0
-17 -20 -24 -29 0
-17 -20 -24 -33 0
-17 -20 -24 -41 0
-17 -20 -25 -26 0
-17 -20 -25 -32 0
-17 -20 -25 -34 0
-17 -20 -25 -44 0
-17 -20 -26 -27 0
-17 -20 -26 -35 0
-17 -20 -26 -47 0
-17 -20 -27 -28 0
-17 -20 -27 -36 0
-17 -20 -27 -38 0
-17 -20 -27 -50 0
-17 -20 -28 -29 0
-17 -20 -28 -37 0
-17 -20 -28 -41 0
-17 -20 -29 -30 0
-17 -20 -29 -38 0
-17 -20 -29 -44 0
-17 -20 -30 -31 0
-17 -20 -30 -39 0
-17 -20 -30 -47 0
-17 -20 -31 -32 0
-17 -20 -31 -40 0
-17 -20 -31 -50 0
-17 -20 -32 -33 0
-17 -20 -32 -41 0
-17 -20 -33 -34 0
-17 -20 -33 -42 0
-17 -20 -34 -35 0
-17 -20 -34 -43 0
-17 -20 -35 -36 0
-17 -20 -35 -44 0
-17 -20 -36 -37 0
-17 -20 -36 -45 0
-17 -20 -37 -38 0
-17 -20 -37 -46 0
-17 -20 -38 -39 0
-17 -20 -38 -47 0
-17 -20 -39 -40 0
-17 -20 -39 -48 0
-17 -20 -40 -41 0
-17 -20 -40 -49 0
-17 -20 -41 -42 0
-17 -20 -41 -50 0
-17 -20 -42 -43 0
-17 -20 -43 -44 0
-17 -20 -44 -45 0
-17 -20 -45 -46 0
-17 -20 -46 -47 0
-17 -20 -47 -48 0
-17 -20 -48 -49 0
-17 -20 -49 -50 0
-17 -21 -22 -34 0
-17 -21 -22 -36 0
-17 -21 -23 -35 0
-17 -21 -23 -39 0
-17 -21 -24 -26 0
-17 -21 -24 -36 0
-17 -21 -24 -42 0
-17 -21 -25 -29 0
-17 -21 -25 -37 0
-17 -21 -25 -45 0
-17 -21 -26 -32 0
-17 -21 -26 -38 0
-17 -21 -26 -48 0
-17 -21 -27 -35 0
-17 -21 -27 -39 0
-17 -21 -28 -38 0
-17 -21 -28 -40 0
-17 -21 -29 -41 0
-17 -21 -30 -42 0
-17 -21 -30 -44 0
-17 -21 -31 -43 0
-17 -21 -31 -47 0
-17 -21 -32 -44 0
-17 -21 -32 -50 0
-17 -21 -33 -45 0
-17 -21 -34 -46 0
-17 -21 -35 -47 0
-17 -21 -36 -48 0
-17 -21 -37 -49 0
-17 -21 -38 -50 0
-17 -22 -23 -24 0
-17 -22 -23 -38 0
-17 -22 -23 -40 0
-17 -22 -24 -39 0
-17 -22 -24 -43 0
-17 -22 -25 -26 0
-17 -22 -25 -40 0
-17 -22 -25 -46 0
-17 -22 -26 -29 0
-17 -22 -26 -41 0
-17 -22 -26 -49 0
-17 -22 -27 -32 0
-17 -22 -27 -42 0
-17 -22 -28 -35 0
-17 -22 -28 -43 0
-17 -22 -29 -38 0
-17 -22 -29 -44 0
-17 -22 -30 -41 0
-17 -22 -30 -45 0
-17 -22 -31 -44 0
-17 -22 -31 -46 0
-17 -22 -32 -47 0
-17 -22 -33 -48 0
-17 -22 -33 -50 0
-17 -22 -34 -49 0
-17 -22 -35 -50 0
-17 -23 -24 -26 0
-17 -23 -24 -42 0
-17 -23 -24 -44 0
-17 -23 -25 -27 0
-17 -23 -25 -43 0
-17 -23 -25 -47 0
-17 -23 -26 -28 0
-17 -23 -26 -44 0
-17 -23 -26 -50 0
-17 -23 -27 -29 0
-17 -23 -27 -45 0
-17 -23 -28 -30 0
-17 -23 -28 -32 0
-17 -23 -28 -46 0
-17 -23 -29 -31 0
-17 -23 -29 -35 0
-17 -23 -29 -47 0
-17 -23 -30 -32 0
-17 -23 -30 -38 0
-17 -23 -30 -48 0
-17 -23 -31 -33 0
-17 -23 -31 -41 0
-17 -23 -31 -49 0
-17 -23 -32 -34 0
-17 -23 -32 -44 0
-17 -23 -32 -50 0
-17 -23 -33 -35 0
-17 -23 -33 -47 0
-17 -23 -34 -36 0
-17 -23 -34 -50 0
-17 -23 -35 -37 0
-17 -23 -36 -38 0
-17 -23 -37 -39 0
-17 -23 -38 -40 0
-17 -23 -39 -41 0
-17 -23 -40 -42 0
-17 -23 -41 -43 0
-17 -23 -42 -44 0
-17 -23 -43 -45 0
-17 -23 -44 -46 0
-17 -23 -45 -47 0
-17 -23 -46 -48 0
-17 -23 -47 -49 0
-17 -23 -48 -50 0
-17 -24 -25 -46 0
-17 -24 -25 -48 0
-17 -24 -26 -27 0
-17 -24 -26 -47 0
-17 -24 -27 -48 0
-17 -24 -28 -29 0
-17 -24 -28 -49 0
-17 -24 -29 -32 0
-17 -24 -29 -50 0
-17 -24 -30 -35 0
-17 -24 -31 -38 0
-17 -24 -32 -41 0
-17 -24 -33 -44 0
-17 -24 -34 -47 0
-17 -24 -35 -50 0
-17 -25 -26 -28 0
-17 -25 -26 -50 0
-17 -25 -30 -32 0
-17 -25 -31 -35 0
-17 -25 -32 -38 0
-17 -25 -33 -41 0
-17 -25 -34 -44 0
-17 -25 -35 -47 0
-17 -25 -36 -50 0
-17 -26 -27 -30 0
-17 -26 -28 -31 0
-17 -26 -29 -30 0
-17 -26 -29 -32 0
-17 -26 -30 -33 0
-17 -26 -31 -32 0
-17 -26 -31 -34 0
-17 -26 -32 -35 0
-17 -26 -33 -36 0
-17 -26 -33 -38 0
-17 -26 -34 -37 0
-17 -26 -34 -41 0
-17 -26 -35 -38 0
-17 -26 -35 -44 0
-17 -26 -36 -39 0
-17 -26 -36 -47 0
-17 -26 -37 -40 0
-17 -26 -37 -50 0
-17 -26 -38 -41 0
-17 -26 -39 -42 0
-17 -26 -40 -43 0
-17 -26 -41 -44 0
-17 -26 -42 -45 0
-17 -26 -43 -46 0
-17 -26 -44 -47 0
-17 -26 -45 -48 0
-17 -26 -46 -49 0
-17 -26 -47 -50 0
-17 -27 -29 -31 0
-17 -27 -33 -35 0
-17 -27 -34 -38 0
-17 -27 -35 -41 0
-17 -27 -36 -44 0
-17 -27 -37 -47 0
-17 -27 -38 -50 0
-17 -28 -29 -32 0
-17 -28 -32 -33 0
-17 -28 -34 -35 0
-17 -28 -35 -38 0
-17 -28 -36 -41 0
-17 -28 -37 -44 0
-17 -28 -38 -47 0
-17 -28 -39 -50 0
-17 -29 -30 -34 0
-17 -29 -31 -35 0
-17 -29 -32 -34 0
-17 -29 -32 -36 0
-17 -29 -33 -37 0
-17 -29 -34 -38 0
-17 -29 -35 -39 0
-17 -29 -36 -38 0
-17 -29 -36 -40 0
-17 -29 -37 -41 0
-17 -29 -38 -42 0
-17 -29 -38 -44 0
-17 -29 -39 -43 0
-17 -29 -39 -47 0
-17 -29 -40 -44 0
-17 -29 -40 -50 0
-17 -29 -41 -45 0
-17 -29 -42 -46 0
-17 -29 -43 -47 0
-17 -29 -44 -48 0
-17 -29 -45 -49 0
-17 -29 -46 -50 0
-17 -30 -32 -35 0
-17 -30 -35 -36 0
-17 -30 -37 -38 0
-17 -30 -38 -41 0
-17 -30 -39 -44 0
-17 -30 -40 -47 0
-17 -30 -41 -50 0
-17 -31 -32 -36 0
-17 -31 -35 -37 0
-17 -31 -39 -41 0
-17 -31 -40 -44 0
-17 -31 -41 -47 0
-17 -31 -42 -50 0
-17 -32 -33 -38 0
-17 -32 -34 -39 0
-17 -32 -35 -38 0
-17 -32 -35 -40 0
-17 -32 -36 -41 0
-17 -32 -37 -42 0
-17 -32 -38 -39 0
-17 -32 -38 -43 0
-17 -32 -39 -44 0
-17 -32 -40 -41 0
-17 -32 -40 -45 0
-17 -32 -41 -44 0
-17 -32 -41 -46 0
-17 -32 -42 -47 0
-17 -32 -43 -48 0
-17 -32 -43 -50 0
-17 -32 -44 -49 0
-17 -32 -45 -50 0
-17 -33 -35 -39 0
-17 -33 -38 -40 0
-17 -33 -42 -44 0
-17 -33 -43 -47 0
-17 -33 -44 -50 0
-17 -34 -35 -40 0
-17 -34 -38 -41 0
-17 -34 -41 -42 0
-17 -34 -43 -44 0
-17 -34 -44 -47 0
-17 -34 -45 -50 0
-17 -35 -36 -42 0
-17 -35 -37 -43 0
-17 -35 -38 -42 0
-17 -35 -38 -44 0
-17 -35 -39 -45 0
-17 -35 -40 -46 0
-17 -35 -41 -43 0
-17 -35 -41 -47 0
-17 -35 -42 -48 0
-17 -35 -43 -49 0
-17 -35 -44 -50 0
-17 -35 -45 -47 0
-17 -35 -46 -50 0
-17 -36 -38 -43 0
-17 -36 -41 -44 0
-17 -36 -44 -45 0
-17 -36 -46 -47 0
-17 -36 -47 -50 0
-17 -37 -38 -44 0
-17 -37 -41 -45 0
-17 -37 -44 -46 0
-17 -37 -48 -50 0
-17 -38 -39 -46 0
-17 -38 -40 -47 0
-17 -38 -41 -46 0
-17 -38 -41 -48 0
-17 -38 -42 -49 0
-17 -38 -43 -50 0
-17 -38 -44 -47 0
-17 -38 -47 -48 0
-17 -38 -49 -50 0
-17 -39 -41 -47 0
-17 -39 -44 -48 0
-17 -39 -47 -49 0
-17 -40 -41 -48 0
-17 -40 -44 -49 0
-17 -40 -47 -50 0
-17 -41 -42 -50 0
-17 -41 -44 -50 0
-18 -19 -20 -21 0
-18 -19 -20 -23 0
-18 -19 -20 -25 0
-18 -19 -21 -24 0
-18 -19 -21 -28 0
-18 -19 -22 -25 0
-18 -19 -22 -27 0
-18 -19 -22 -31 0
-18 -19 -23 -26 0
-18 -19 -23 -30 0
-18 -19 -23 -34 0
-18 -19 -24 -27 0
-18 -19 -24 -33 0
-18 -19 -24 -37 0
-18 -19 -25 -28 0
-18 -19 -25 -36 0
-18 -19 -25 -40 0
-18 -19 -26 -29 0
-18 -19 -26 -39 0
-18 -19 -26 -43 0
-18 -19 -27 -30 0
-18 -19 -27 -42 0
-18 -19 -27 -46 0
-18 -19 -28 -31 0
-18 -19 -28 -45 0
-18 -19 -28 -49 0
-18 -19 -29 -32 0
-18 -19 -29 -48 0
-18 -19 -30 -33 0
-18 -19 -31 -34 0
-18 -19 -32 -35 0
-18 -19 -33 -36 0
-18 -19 -34 -37 0
-18 -19 -35 -38 0
-18 -19 -36 -39 0
-18 -19 -37 -40 0
-18 -19 -38 -41 0
-18 -19 -39 -42 0
-18 -19 -40 -43 0
-18 -19 -41 -44 0
-18 -19 -42 -45 0
-18 -19 -43 -46 0
-18 -19 -44 -47 0
-18 -19 -45 -48 0
-18 -19 -46 -49 0
-18 -19 -47 -50 0
-18 -20 -21 -27 0
-18 -20 -21 -29 0
-18 -20 -22 -24 0
-18 -20 -22 -28 0
-18 -20 -22 -32 0
-18 -20 -23 -27 0
-18 -20 -23 -29 0
-18 -20 -23 -35 0
-18 -20 -24 -30 0
-18 -20 -24 -38 0
-18 -20 -25 -31 0
-18 -20 -25 -33 0
-18 -20 -25 -41 0
-18 -20 -26 -32 0
-18 -20 -26 -36 0
-18 -20 -26 -44 0
-18 -20 -27 -33 0
-18 -20 -27 -39 0
-18 -20 -27 -47 0
-18 -20 -28 -34 0
-18 -20 -28 -42 0
-18 -20 -28 -50 0
-18 -20 -29 -35 0
-18 -20 -29 -45 0
-18 -20 -30 -36 0
-18 -20 -30 -48 0
-18 -20 -31 -37 0
-18 -20 -32 -38 0
-18 -20 -33 -39 0
-18 -20 -34 -40 0
-18 -20 -35 -41 0
-18 -20 -36 -42 0
-18 -20 -37 -43 0
-18 -20 -38 -44 0
-18 -20 -39 -45 0
-18 -20 -40 -46 0
-18 -20 -41 -47 0
-18 -20 -42 -48 0
-18 -20 -43 -49 0
-18 -20 -44 -50 0
-18 -21 -22 -23 0
-18 -21 -22 -31 0
-18 -21 -22 -33 0
-18 -21 -23 -24 0
-18 -21 -23 -32 0
-18 -21 -23 -36 0
-18 -21 -24 -25 0
-18 -21 -24 -27 0
-18 -21 -24 -33 0
-18 -21 -24 -39 0
-18 -21 -25 -26 0
-18 -21 -25 -30 0
-18 -21 -25 -34 0
-18 -21 -25 -42 0
-18 -21 -26 -27 0
-18 -21 -26 -33 0
-18 -21 -26 -35 0
-18 -21 -26 -45 0
-18 -21 -27 -28 0
-18 -21 -27 -36 0
-18 -21 -27 -48 0
-18 -21 -28 -29 0
-18 -21 -28 -37 0
-18 -21 -28 -39 0
-18 -21 -29 -30 0
-18 -21 -29 -38 0
-18 -21 -29 -42 0
-18 -21 -30 -31 0
-18 -21 -30 -39 0
-18 -21 -30 -45 0
-18 -21 -31 -32 0
-18 -21 -31 -40 0
-18 -21 -31 -48 0
-18 -21 -32 -33 0
-18 -21 -32 -41 0
-18 -21 -33 -34 0
-18 -21 -33 -42 0
-18 -21 -34 -35 0
-18 -21 -34 -43 0
-18 -21 -35 -36 0
-18 -21 -35 -44 0
-18 -21 -36 -37 0
-18 -21 -36 -45 0
-18 -21 -37 -38 0
-18 -21 -37 -46 0
-18 -21 -38 -39 0
-18 -21 -38 -47 0
-18 -21 -39 -40 0
-18 -21 -39 -48 0
-18 -21 -40 -41 0
-18 -21 -40 -49 0
-18 -21 -41 -42 0
-18 -21 -41 -50 0
-18 -21 -42 -43 0
-18 -21 -43 -44 0
-18 -21 -44 -45 0
-18 -21 -45 -46 0
-18 -21 -46 -47 0
-18 -21 -47 -48 0
-18 -21 -48 -49 0
-18 -21 -49 -50 0
-18 -22 -23 -35 0
-18 -22 -23 -37 0
-18 -22 -24 -36 0
-18 -22 -24 -40 0
-18 -22 -25 -27 0
-18 -22 -25 -37 0
-18 -22 -25 -43 0
-18 -22 -26 -30 0
-18 -22 -26 -38 0
-18 -22 -26 -46 0
-18 -22 -27 -33 0
-18 -22 -27 -39 0
-18 -22 -27 -49 0
-18 -22 -28 -36 0
-18 -22 -28 -40 0
-18 -22 -29 -39 0
-18 -22 -29 -41 0
-18 -22 -30 -42 0
-18 -22 -31 -43 0
-18 -22 -31 -45 0
-18 -22 -32 -44 0
-18 -22 -32 -48 0
-18 -22 -33 -45 0
-18 -22 -34 -46 0
-18 -22 -35 -47 0
-18 -22 -36 -48 0
-18 -22 -37 -49 0
-18 -22 -38 -50 0
-18 -23 -24 -25 0
-18 -23 -24 -39 0
-18 -23 -24 -41 0
-18 -23 -25 -40 0
-18 -23 -25 -44 0
-18 -23 -26 -27 0
-18 -23 -26 -41 0
-18 -23 -26 -47 0
-18 -23 -27 -30 0
-18 -23 -27 -42 0
-18 -23 -27 -50 0
-18 -23 -28 -33 0
-18 -23 -28 -43 0
-18 -23 -29 -36 0
-18 -23 -29 -44 0
-18 -23 -30 -39 0
-18 -23 -30 -45 0
-18 -23 -31 -42 0
-18 -23 -31 -46 0
-18 -23 -32 -45 0
-18 -23 -32 -47 0
-18 -23 -33 -48 0
-18 -23 -34 -49 0
-18 -23 -35 -50 0
-18 -24 -25 -27 0
-18 -24 -25 -43 0
-18 -24 -25 -45 0
-18 -24 -26 -28 0
-18 -24 -26 -44 0
-18 -24 -26 -48 0
-18 -24 -27 -29 0
-18 -24 -27 -45 0
-18 -24 -28 -30 0
-18 -24 -28 -46 0
-18 -24 -29 -31 0
-18 -24 -29 -33 0
-18 -24 -29 -47 0
-18 -24 -30 -32 0
-18 -24 -30 -36 0
-18 -24 -30 -48 0
-18 -24 -31 -33 0
-18 -24 -31 -39 0
-18 -24 -31 -49 0
-18 -24 -32 -34 0
-18 -24 -32 -42 0
-18 -24 -32 -50 0
-18 -24 -33 -35 0
-18 -24 -33 -45 0
-18 -24 -34 -36 0
-18 -24 -34 -48 0
-18 -24 -35 -37 0
-18 -24 -36 -38 0
-18 -24 -37 -39 0
-18 -24 -38 -40 0
-18 -24 -39 -41 0
-18 -24 -40 -42 0
-18 -24 -41 -43 0
-18 -24 -42 -44 0
-18 -24 -43 -45 0
-18 -24 -44 -46 0
-18 -24 -45 -47 0
-18 -24 -46 -48 0
-18 -24 -47 -49 0
-18 -24 -48 -50 0
-18 -25 -26 -47 0
-18 -25 -26 -49 0
-18 -25 -27 -28 0
-18 -25 -27 -48 0
-18 -25 -28 -49 0
-18 -25 -29 -30 0
-18 -25 -29 -50 0
-18 -25 -30 -33 0
-18 -25 -31 -36 0
-18 -25 -32 -39 0
-18 -25 -33 -42 0
-18 -25 -34 -45 0
-18 -25 -35 -48 0
-18 -26 -27 -29 0
-18 -26 -31 -33 0
-18 -26 -32 -36 0
-18 -26 -33 -39 0
-18 -26 -34 -42 0
-18 -26 -35 -45 0
-18 -26 -36 -48 0
-18 -27 -28 -31 0
-18 -27 -29 -32 0
-18 -27 -30 -31 0
-18 -27 -30 -33 0
-18 -27 -31 -34 0
-18 -27 -32 -33 0
-18 -27 -32 -35 0
-18 -27 -33 -36 0
-18 -27 -34 -37 0
-18 -27 -34 -39 0
-18 -27 -35 -38 0
-18 -27 -35 -42 0
-18 -27 -36 -39 0
-18 -27 -36 -45 0
-18 -27 -37 -40 0
-18 -27 -37 -48 0
-18 -27 -38 -41 0
-18 -27 -39 -42 0
-18 -27 -40 -43 0
-18 -27 -41 -44 0
-18 -27 -42 -45 0
-18 -27 -43 -46 0
-18 -27 -44 -47 0
-18 -27 -45 -48 0
-18 -27 -46 -49 0
-18 -27 -47 -50 0
-18 -28 -30 -32 0
-18 -28 -34 -36 0
-18 -28 -35 -39 0
-18 -28 -36 -42 0
-18 -28 -37 -45 0
-18 -28 -38 -48 0
-18 -29 -30 -33 0
-18 -29 -33 -34 0
-18 -29 -35 -36 0
-18 -29 -36 -39 0
-18 -29 -37 -42 0
-18 -29 -38 -45 0
-18 -29 -39 -48 0
-18 -30 -31 -35 0
-18 -30 -32 -36 0
-18 -30 -33 -35 0
-18 -30 -33 -37 0
-18 -30 -34 -38 0
-18 -30 -35 -39 0
-18 -30 -36 -40 0
-18 -30 -37 -39 0
-18 -30 -37 -41 0
-18 -30 -38 -42 0
-18 -30 -39 -43 0
-18 -30 -39 -45 0
-18 -30 -40 -44 0
-18 -30 -40 -48 0
-18 -30 -41 -45 0
-18 -30 -42 -46 0
-18 -30 -43 -47 0
-18 -30 -44 -48 0
-18 -30 -45 -49 0
-18 -30 -46 -50 0
-18 -31 -33 -36 0
-18 -31 -36 -37 0
-18 -31 -38 -39 0
-18 -31 -39 -42 0
-18 -31 -40 -45 0
-18 -31 -41 -48 0
-18 -32 -33 -37 0
-18 -32 -36 -38 0
-18 -32 -40 -42 0
-18 -32 -41 -45 0
-18 -32 -42 -48 0
-18 -33 -34 -39 0
-18 -33 -35 -40 0
-18 -33 -36 -39 0
-18 -33 -36 -41 0
-18 -33 -37 -42 0
-18 -33 -38 -43 0
-18 -33 -39 -40 0
-18 -33 -39 -44 0
-18 -33 -40 -45 0
-18 -33 -41 -42 0
-18 -33 -41 -46 0
-18 -33 -42 -45 0
-18 -33 -42 -47 0
-18 -33 -43 -48 0
-18 -33 -44 -49 0
-18 -33 -45 -50 0
-18 -34 -36 -40 0
-18 -34 -39 -41 0
-18 -34 -43 -45 0
-18 -34 -44 -48 0
-18 -35 -36 -41 0
-18 -35 -39 -42 0
-18 -35 -42 -43 0
-18 -35 -44 -45 0
-18 -35 -45 -48 0
-18 -36 -37 -43 0
-18 -36 -38 -44 0
-18 -36 -39 -43 0
-18 -36 -39 -45 0
-18 -36 -40 -46 0
-18 -36 -41 -47 0
-18 -36 -42 -44 0
-18 -36 -42 -48 0
-18 -36 -43 -49 0
-18 -36 -44 -50 0
-18 -36 -46 -48 0
-18 -37 -39 -44 0
-18 -37 -42 -45 0
-18 -37 -45 -46 0
-18 -37 -47 -48 0
-18 -38 -39 -45 0
-18 -38 -42 -46 0
-18 -38 -45 -47 0
-18 -39 -40 -47 0
-18 -39 -41 -48 0
-18 -39 -42 -47 0
-18 -39 -42 -49 0
-18 -39 -43 -50 0
-18 -39 -45 -48 0
-18 -39 -48 -49 0
-18 -40 -42 -48 0
-18 -40 -45 -49 0
-18 -40 -48 -50 0
-18 -41 -42 -49 0
-18 -41 -45 -50 0
-19 -20 -21 -22 0
-19 -20 -21 -24 0
-19 -20 -21 -26 0
-19 -20 -22 -25 0
-19 -20 -22 -29 0
-19 -20 -23 -26 0
-19 -20 -23 -28 0
-19 -20 -23 -32 0
-19 -20 -24 -27 0
-19 -20 -24 -31 0
-19 -20 -24 -35 0
-19 -20 -25 -28 0
-19 -20 -25 -34 0
-19 -20 -25 -38 0
-19 -20 -26 -29 0
-19 -20 -26 -37 0
-19 -20 -26 -41 0
-19 -20 -27 -30 0
-19 -20 -27 -40 0
-19 -20 -27 -44 0
-19 -20 -28 -31 0
-19 -20 -28 -43 0
-19 -20 -28 -47 0
-19 -20 -29 -32 0
-19 -20 -29 -46 0
-19 -20 -29 -50 0
-19 -20 -30 -33 0
-19 -20 -30 -49 0
-19 -20 -31 -34 0
-19 -20 -32 -35 0
-19 -20 -33 -36 0
-19 -20 -34 -37 0
-19 -20 -35 -38 0
-19 -20 -36 -39 0
-19 -20 -37 -40 0
-19 -20 -38 -41 0
-19 -20 -39 -42 0
-19 -20 -40 -43 0
-19 -20 -41 -44 0
-19 -20 -42 -45 0
-19 -20 -43 -46 0
-19 -20 -44 -47 0
-19 -20 -45 -48 0
-19 -20 -46 -49 0
-19 -20 -47 -50 0
-19 -21 -22 -28 0
-19 -21 -22 -30 0
-19 -21 -23 -25 0
-19 -21 -23 -29 0
-19 -21 -23 -33 0
-19 -21 -24 -28 0
-19 -21 -24 -30 0
-19 -21 -24 -36 0
-19 -21 -25 -31 0
-19 -21 -25 -39 0
-19 -21 -26 -32 0
-19 -21 -26 -34 0
-19 -21 -26 -42 0
-19 -21 -27 -33 0
-19 -21 -27 -37 0
-19 -21 -27 -45 0
-19 -21 -28 -34 0
-19 -21 -28 -40 0
-19 -21 -28 -48 0
-19 -21 -29 -35 0
-19 -21 -29 -43 0
-19 -21 -30 -36 0
-19 -21 -30 -46 0
-19 -21 -31 -37 0
-19 -21 -31 -49 0
-19 -21 -32 -38 0
-19 -21 -33 -39 0
-19 -21 -34 -40 0
-19 -21 -35 -41 0
-19 -21 -36 -42 0
-19 -21 -37 -43 0
-19 -21 -38 -44 0
-19 -21 -39 -45 0
-19 -21 -40 -46 0
-19 -21 -41 -47 0
-19 -21 -42 -48 0
-19 -21 -43 -49 0
-19 -21 -44 -50 0
-19 -22 -23 -24 0
-19 -22 -23 -32 0
-19 -22 -23 -34 0
-19 -22 -24 -25 0
-19 -22 -24 -33 0
-19 -22 -24 -37 0
-19 -22 -25 -26 0
-19 -22 -25 -28 0
-19 -22 -25 -34 0
-19 -22 -25 -40 0
-19 -22 -26 -27 0
-19 -22 -26 -31 0
-19 -22 -26 -35 0
-19 -22 -26 -43 0
-19 -22 -27 -28 0
-19 -22 -27 -34 0
-19 -22 -27 -36 0
-19 -22 -27 -46 0
-19 -22 -28 -29 0
-19 -22 -28 -37 0
-19 -22 -28 -49 0
-19 -22 -29 -30 0
-19 -22 -29 -38 0
-19 -22 -29 -40 0
-19 -22 -30 -31 0
-19 -22 -30 -39 0
-19 -22 -30 -43 0
-19 -22 -31 -32 0
-19 -22 -31 -40 0
-19 -22 -31 -46 0
-19 -22 -32 -33 0
-19 -22 -32 -41 0
-19 -22 -32 -49 0
-19 -22 -33 -34 0
-19 -22 -33 -42 0
-19 -22 -34 -35 0
-19 -22 -34 -43 0
-19 -22 -35 -36 0
-19 -22 -35 -44 0
-19 -22 -36 -37 0
-19 -22 -36 -45 0
-19 -22 -37 -38 0
-19 -22 -37 -46 0
-19 -22 -38 -39 0
-19 -22 -38 -47 0
-19 -22 -39 -40 0
-19 -22 -39 -48 0
-19 -22 -40 -41 0
-19 -22 -40 -49 0
-19 -22 -41 -42 0
-19 -22 -41 -50 0
-19 -22 -42 -43 0
-19 -22 -43 -44 0
-19 -22 -44 -45 0
-19 -22 -45 -46 0
-19 -22 -46 -47 0
-19 -22 -47 -48 0
-19 -22 -48 -49 0
-19 -22 -49 -50 0
-19 -23 -24 -36 0
-19 -23 -24 -38 0
-19 -23 -25 -37 0
-19 -23 -25 -41 0
-19 -23 -26 -28 0
-19 -23 -26 -38 0
-19 -23 -26 -44 0
-19 -23 -27 -31 0
-19 -23 -27 -39 0
-19 -23 -27 -47 0
-19 -23 -28 -34 0
-19 -23 -28 -40 0
-19 -23 -28 -50 0
-19 -23 -29 -37 0
-19 -23 -29 -41 0
-19 -23 -30 -40 0
-19 -23 -30 -42 0
-19 -23 -31 -43 0
-19 -23 -32 -44 0
-19 -23 -32 -46 0
-19 -23 -33 -45 0
-19 -23 -33 -49 0
-19 -23 -34 -46 0
-19 -23 -35 -47 0
-19 -23 -36 -48 0
-19 -23 -37 -49 0
-19 -23 -38 -50 0
-19 -24 -25 -26 0
-19 -24 -25 -40 0
-19 -24 -25 -42 0
-19 -24 -26 -41 0
-19 -24 -26 -45 0
-19 -24 -27 -28 0
-19 -24 -27 -42 0
-19 -24 -27 -48 0
-19 -24 -28 -31 0
-19 -24 -28 -43 0
-19 -24 -29 -34 0
-19 -24 -29 -44 0
-19 -24 -30 -37 0
-19 -24 -30 -45 0
-19 -24 -31 -40 0
-19 -24 -31 -46 0
-19 -24 -32 -43 0
-19 -24 -32 -47 0
-19 -24 -33 -46 0
-19 -24 -33 -48 0
-19 -24 -34 -49 0
-19 -24 -35 -50 0
-19 -25 -26 -28 0
-19 -25 -26 -44 0
-19 -25 -26 -46 0
-19 -25 -27 -29 0
-19 -25 -27 -45 0
-19 -25 -27 -49 0
-19 -25 -28 -30 0
-19 -25 -28 -46 0
-19 -25 -29 -31 0
-19 -25 -29 -47 0
-19 -25 -30 -32 0
-19 -25 -30 -34 0
-19 -25 -30 -48 0
-19 -25 -31 -33 0
-19 -25 -31 -37 0
-19 -25 -31 -49 0
-19 -25 -32 -34 0
-19 -25 -32 -40 0
-19 -25 -32 -50 0
-19 -25 -33 -35 0
-19 -25 -33 -43 0
-19 -25 -34 -36 0
-19 -25 -34 -46 0
-19 -25 -35 -37 0
-19 -25 -35 -49 0
-19 -25 -36 -38 0
-19 -25 -37 -39 0
-19 -25 -38 -40 0
-19 -25 -39 -41 0
-19 -25 -40 -42 0
-19 -25 -41 -43 0
-19 -25 -42 -44 0
-19 -25 -43 -45 0
-19 -25 -44 -46 0
-19 -25 -45 -47 0
-19 -25 -46 -48 0
-19 -25 -47 -49 0
-19 -25 -48 -50 0
-19 -26 -27 -48 0
-19 -26 -27 -50 0
-19 -26 -28 -29 0
-19 -26 -28 -49 0
-19 -26 -29 -50 0
-19 -26 -30 -31 0
-19 -26 -31 -34 0
-19 -26 -32 -37 0
-19 -26 -33 -40 0
-19 -26 -34 -43 0
-19 -26 -35 -46 0
-19 -26 -36 -49 0
-19 -27 -28 -30 0
-19 -27 -32 -34 0
-19 -27 -33 -37 0
-19 -27 -34 -40 0
-19 -27 -35 -43 0
-19 -27 -36 -46 0
-19 -27 -37 -49 0
-19 -28 -29 -32 0
-19 -28 -30 -33 0
-19 -28 -31 -32 0
-19 -28 -31 -34 0
-19 -28 -32 -35 0
-19 -28 -33 -34 0
-19 -28 -33 -36 0
-19 -28 -34 -37 0
-19 -28 -35 -38 0
-19 -28 -35 -40 0
-19 -28 -36 -39 0
-19 -28 -36 -43 0
-19 -28 -37 -40 0
-19 -28 -37 -46 0
-19 -28 -38 -41 0
-19 -28 -38 -49 0
-19 -28 -39 -42 0
-19 -28 -40 -43 0
-19 -28 -41 -44 0
-19 -28 -42 -45 0
-19 -28 -43 -46 0
-19 -28 -44 -47 0
-19 -28 -45 -48 0
-19 -28 -46 -49 0
-19 -28 -47 -50 0
-19 -29 -31 -33 0
-19 -29 -35 -37 0
-19 -29 -36 -40 0
-19 -29 -37 -43 0
-19 -29 -38 -46 0
-19 -29 -39 -49 0
-19 -30 -31 -34 0
-19 -30 -34 -35 0
-19 -30 -36 -37 0
-19 -30 -37 -40 0
-19 -30 -38 -43 0
-19 -30 -39 -46 0
-19 -30 -40 -49 0
-19 -31 -32 -36 0
-19 -31 -33 -37 0
-19 -31 -34 -36 0
-19 -31 -34 -38 0
-19 -31 -35 -39 0
-19 -31 -36 -40 0
-19 -31 -37 -41 0
-19 -31 -38 -40 0
-19 -31 -38 -42 0
-19 -31 -39 -43 0
-19 -31 -40 -44 0
-19 -31 -40 -46 0
-19 -31 -41 -45 0
-19 -31 -41 -49 0
-19 -31 -42 -46 0
-19 -31 -43 -47 0
-19 -31 -44 -48 0
-19 -31 -45 -49 0
-19 -31 -46 -50 0
-19 -32 -34 -37 0
-19 -32 -37 -38 0
-19 -32 -39 -40 0
-19 -32 -40 -43 0
-19 -32 -41 -46 0
-19 -32 -42 -49 0
-19 -33 -34 -38 0
-19 -33 -37 -39 0
-19 -33 -41 -43 0
-19 -33 -42 -46 0
-19 -33 -43 -49 0
-19 -34 -35 -40 0
-19 -34 -36 -41 0
-19 -34 -37 -40 0
-19 -34 -37 -42 0
-19 -34 -38 -43 0
-19 -34 -39 -44 0
-19 -34 -40 -41 0
-19 -34 -40 -45 0
-19 -34 -41 -46 0
-19 -34 -42 -43 0
-19 -34 -42 -47 0
-19 -34 -43 -46 0
-19 -34 -43 -48 0
-19 -34 -44 -49 0
-19 -34 -45 -50 0
-19 -35 -37 -41 0
-19 -35 -40 -42 0
-19 -35 -44 -46 0
-19 -35 -45 -49 0
-19 -36 -37 -42 0
-19 -36 -40 -43 0
-19 -36 -43 -44 0
-19 -36 -45 -46 0
-19 -36 -46 -49 0
-19 -37 -38 -44 0
-19 -37 -39 -45 0
-19 -37 -40 -44 0
-19 -37 -40 -46 0
-19 -37 -41 -47 0
-19 -37 -42 -48 0
-19 -37 -43 -45 0
-19 -37 -43 -49 0
-19 -37 -44 -50 0
-19 -37 -47 -49 0
-19 -38 -40 -45 0
-19 -38 -43 -46 0
-19 -38 -46 -47 0
-19 -38 -48 -49 0
-19 -39 -40 -46 0
-19 -39 -43 -47 0
-19 -39 -46 -48 0
-19 -40 -41 -48 0
-19 -40 -42 -49 0
-19 -40 -43 -48 0
-19 -40 -43 -50 0
-19 -40 -46 -49 0
-19 -40 -49 -50 0
-19 -41 -43 -49 0
-19 -41 -46 -50 0
-19 -42 -43 -50 0
-20 -21 -22 -23 0
-20 -21 -22 -25 0
-20 -21 -22 -27 0
-20 -21 -23 -26 0
-20 -21 -23 -30 0
-20 -21 -24 -27 0
-20 -21 -24 -29 0
-20 -21 -24 -33 0
-20 -21 -25 -28 0
-20 -21 -25 -32 0
-20 -21 -25 -36 0
-20 -21 -26 -29 0
-20 -21 -26 -35 0
-20 -21 -26 -39 0
-20 -21 -27 -30 0
-20 -21 -27 -38 0
-20 -21 -27 -42 0
-20 -21 -28 -31 0
-20 -21 -28 -41 0
-20 -21 -28 -45 0
-20 -21 -29 -32 0
-20 -21 -29 -44 0
-20 -21 -29 -48 0
-20 -21 -30 -33 0
-20 -21 -30 -47 0
-20 -21 -31 -34 0
-20 -21 -31 -50 0
-20 -21 -32 -35 0
-20 -21 -33 -36 0
-20 -21 -34 -37 0
-20 -21 -35 -38 0
-20 -21 -36 -39 0
-20 -21 -37 -40 0
-20 -21 -38 -41 0
-20 -21 -39 -42 0
-20 -21 -40 -43 0
-20 -21 -41 -44 0
-20 -21 -42 -45 0
-20 -21 -43 -46 0
-20 -21 -44 -47 0
-20 -21 -45 -48 0
-20 -21 -46 -49 0
-20 -21 -47 -50 0
-20 -22 -23 -29 0
-20 -22 -23 -31 0
-20 -22 -24 -26 0
-20 -22 -24 -30 0
-20 -22 -24 -34 0
-20 -22 -25 -29 0
-20 -22 -25 -31 0
-20 -22 -25 -37 0
-20 -22 -26 -32 0
-20 -22 -26 -40 0
-20 -22 -27 -33 0
-20 -22 -27 -35 0
-20 -22 -27 -43 0
-20 -22 -28 -34 0
-20 -22 -28 -38 0
-20 -22 -28 -46 0
-20 -22 -29 -35 0
-20 -22 -29 -41 0
-20 -22 -29 -49 0
-20 -22 -30 -36 0
-20 -22 -30 -44 0
-20 -22 -31 -37 0
-20 -22 -31 -47 0
-20 -22 -32 -38 0
-20 -22 -32 -50 0
-20 -22 -33 -39 0
-20 -22 -34 -40 0
-20 -22 -35 -41 0
-20 -22 -36 -42 0
-20 -22 -37 -43 0
-20 -22 -38 -44 0
-20 -22 -39 -45 0
-20 -22 -40 -46 0
-20 -22 -41 -47 0
-20 -22 -42 -48 0
-20 -22 -43 -49 0
-20 -22 -44 -50 0
-20 -23 -24 -25 0
-20 -23 -24 -33 0
-20 -23 -24 -35 0
-20 -23 -25 -26 0
-20 -23 -25 -34 0
-20 -23 -25 -38 0
-20 -23 -26 -27 0
-20 -23 -26 -29 0
-20 -23 -26 -35 0
-20 -23 -26 -41 0
-20 -23 -27 -28 0
-20 -23 -27 -32 0
-20 -23 -27 -36 0
-20 -23 -27 -44 0
-20 -23 -28 -29 0
-20 -23 -28 -35 0
-20 -23 -28 -37 0
-20 -23 -28 -47 0
-20 -23 -29 -30 0
-20 -23 -29 -38 0
-20 -23 -29 -50 0
-20 -23 -30 -31 0
-20 -23 -30 -39 0
-20 -23 -30 -41 0
-20 -23 -31 -32 0
-20 -23 -31 -40 0
-20 -23 -31 -44 0
-20 -23 -32 -33 0
-20 -23 -32 -41 0
-20 -23 -32 -47 0
-20 -23 -33 -34 0
-20 -23 -33 -42 0
-20 -23 -33 -50 0
-20 -23 -34 -35 0
-20 -23 -34 -43 0
-20 -23 -35 -36 0
-20 -23 -35 -44 0
-20 -23 -36 -37 0
-20 -23 -36 -45 0
-20 -23 -37 -38 0
-20 -23 -37 -46 0
-20 -23 -38 -39 0
-20 -23 -38 -47 0
-20 -23 -39 -40 0
-20 -23 -39 -48 0
-20 -23 -40 -41 0
-20 -23 -40 -49 0
-20 -23 -41 -42 0
-20 -23 -41 -50 0
-20 -23 -42 -43 0
-20 -23 -43 -44 0
-20 -23 -44 -45 0
-20 -23 -45 -46 0
-20 -23 -46 -47 0
-20 -23 -47 -48 0
-20 -23 -48 -49 0
-20 -23 -49 -50 0
-20 -24 -25 -37 0
-20 -24 -25 -39 0
-20 -24 -26 -38 0
-20 -24 -26 -42 0
-20 -24 -27 -29 0
-20 -24 -27 -39 0
-20 -24 -27 -45 0
-20 -24 -28 -32 0
-20 -24 -28 -40 0
-20 -24 -28 -48 0
-20 -24 -29 -35 0
-20 -24 -29 -41 0
-20 -24 -30 -38 0
-20 -24 -30 -42 0
-20 -24 -31 -41 0
-20 -24 -31 -43 0
-20 -24 -32 -44 0
-20 -24 -33 -45 0
-20 -24 -33 -47 0
-20 -24 -34 -46 0
-20 -24 -34 -50 0
-20 -24 -35 -47 0
-20 -24 -36 -48 0
-20 -24 -37 -49 0
-20 -24 -38 -50 0
-20 -25 -26 -27 0
-20 -25 -26 -41 0
-20 -25 -26 -43 0
-20 -25 -27 -42 0
-20 -25 -27 -46 0
-20 -25 -28 -29 0
-20 -25 -28 -43 0
-20 -25 -28 -49 0
-20 -25 -29 -32 0
-20 -25 -29 -44 0
-20 -25 -30 -35 0
-20 -25 -30 -45 0
-20 -25 -31 -38 0
-20 -25 -31 -46 0
-20 -25 -32 -41 0
-20 -25 -32 -47 0
-20 -25 -33 -44 0
-20 -25 -33 -48 0
-20 -25 -34 -47 0
-20 -25 -34 -49 0
-20 -25 -35 -50 0
-20 -26 -27 -29 0
-20 -26 -27 -45 0
-20 -26 -27 -47 0
-20 -26 -28 -30 0
-20 -26 -28 -46 0
-20 -26 -28 -50 0
-20 -26 -29 -31 0
-20 -26 -29 -47 0
-20 -26 -30 -32 0
-20 -26 -30 -48 0
-20 -26 -31 -33 0
-20 -26 -31 -35 0
-20 -26 -31 -49 0
-20 -26 -32 -34 0
-20 -26 -32 -38 0
-20 -26 -32 -50 0
-20 -26 -33 -35 0
-20 -26 -33 -41 0
-20 -26 -34 -36 0
-20 -26 -34 -44 0
-20 -26 -35 -37 0
-20 -26 -35 -47 0
-20 -26 -36 -38 0
-20 -26 -36 -50 0
-20 -26 -37 -39 0
-20 -26 -38 -40 0
-20 -26 -39 -41 0
-20 -26 -40 -42 0
-20 -26 -41 -43 0
-20 -26 -42 -44 0
-20 -26 -43 -45 0
-20 -26 -44 -46 0
-20 -26 -45 -47 0
-20 -26 -46 -48 0
-20 -26 -47 -49 0
-20 -26 -48 -50 0
-20 -27 -28 -49 0
-20 -27 -29 -30 0
-20 -27 -29 -50 0
-20 -27 -31 -32 0
-20 -27 -32 -35 0
-20 -27 -33 -38 0
-20 -27 -34 -41 0
-20 -27 -35 -44 0
-20 -27 -36 -47 0
-20 -27 -37 -50 0
-20 -28 -29 -31 0
-20 -28 -33 -35 0
-20 -28 -34 -38 0
-20 -28 -35 -41 0
-20 -28 -36 -44 0
-20 -28 -37 -47 0
-20 -28 -38 -50 0
-20 -29 -30 -33 0
-20 -29 -31 -34 0
-20 -29 -32 -33 0
-20 -29 -32 -35 0
-20 -29 -33 -36 0
-20 -29 -34 -35 0
-20 -29 -34 -37 0
-20 -29 -35 -38 0
-20 -29 -36 -39 0
-20 -29 -36 -41 0
-20 -29 -37 -40 0
-20 -29 -37 -44 0
-20 -29 -38 -41 0
-20 -29 -38 -47 0
-20 -29 -39 -42 0
-20 -29 -39 -50 0
-20 -29 -40 -43 0
-20 -29 -41 -44 0
-20 -29 -42 -45 0
-20 -29 -43 -46 0
-20 -29 -44 -47 0
-20 -29 -45 -48 0
-20 -29 -46 -49 0
-20 -29 -47 -50 0
-20 -30 -32 -34 0
-20 -30 -36 -38 0
-20 -30 -37 -41 0
-20 -30 -38 -44 0
-20 -30 -39 -47 0
-20 -30 -40 -50 0
-20 -31 -32 -35 0
-20 -31 -35 -36 0
-20 -31 -37 -38 0
-20 -31 -38 -41 0
-20 -31 -39 -44 0
-20 -31 -40 -47 0
-20 -31 -41 -50 0
-20 -32 -33 -37 0
-20 -32 -34 -38 0
-20 -32 -35 -37 0
-20 -32 -35 -39 0
-20 -32 -36 -40 0
-20 -32 -37 -41 0
-20 -32 -38 -42 0
-20 -32 -39 -41 0
-20 -32 -39 -43 0
-20 -32 -40 -44 0
-20 -32 -41 -45 0
-20 -32 -41 -47 0
-20 -32 -42 -46 0
-20 -32 -42 -50 0
-20 -32 -43 -47 0
-20 -32 -44 -48 0
-20 -32 -45 -49 0
-20 -32 -46 -50 0
-20 -33 -35 -38 0
-20 -33 -38 -39 0
-20 -33 -40 -41 0
-20 -33 -41 -44 0
-20 -33 -42 -47 0
-20 -33 -43 -50 0
-20 -34 -35 -39 0
-20 -34 -38 -40 0
-20 -34 -42 -44 0
-20 -34 -43 -47 0
-20 -34 -44 -50 0
-20 -35 -36 -41 0
-20 -35 -37 -42 0
-20 -35 -38 -41 0
-20 -35 -38 -43 0
-20 -35 -39 -44 0
-20 -35 -40 -45 0
-20 -35 -41 -42 0
-20 -35 -41 -46 0
-20 -35 -42 -47 0
-20 -35 -43 -44 0
-20 -35 -43 -48 0
-20 -35 -44 -47 0
-20 -35 -44 -49 0
-20 -35 -45 -50 0
-20 -36 -38 -42 0
-20 -36 -41 -43 0
-20 -36 -45 -47 0
-20 -36 -46 -50 0
-20 -37 -38 -43 0
-20 -37 -41 -44 0
-20 -37 -44 -45 0
-20 -37 -46 -47 0
-20 -37 -47 -50 0
-20 -38 -39 -45 0
-20 -38 -40 -46 0
-20 -38 -41 -45 0
-20 -38 -41 -47 0
-20 -38 -42 -48 0
-20 -38 -43 -49 0
-20 -38 -44 -46 0
-20 -38 -44 -50 0
-20 -38 -48 -50 0
-20 -39 -41 -46 0
-20 -39 -44 -47 0
-20 -39 -47 -48 0
-20 -39 -49 -50 0
-20 -40 -41 -47 0
-20 -40 -44 -48 0
-20 -40 -47 -49 0
-20 -41 -42 -49 0
-20 -41 -43 -50 0
-20 -41 -44 -49 0
-20 -41 -47 -50 0
-20 -42 -44 -50 0
-21 -22 -23 -24 0
-21 -22 -23 -26 0
-21 -22 -23 -28 0
-21 -22 -24 -27 0
-21 -22 -24 -31 0
-21 -22 -25 -28 0
-21 -22 -25 -30 0
-21 -22 -25 -34 0
-21 -22 -26 -29 0
-21 -22 -26 -33 0
-21 -22 -26 -37 0
-21 -22 -27 -30 0
-21 -22 -27 -36 0
-21 -22 -27 -40 0
-21 -22 -28 -31 0
-21 -22 -28 -39 0
-21 -22 -28 -43 0
-21 -22 -29 -32 0
-21 -22 -29 -42 0
-21 -22 -29 -46 0
-21 -22 -30 -33 0
-21 -22 -30 -45 0
-21 -22 -30 -49 0
-21 -22 -31 -34 0
-21 -22 -31 -48 0
-21 -22 -32 -35 0
-21 -22 -33 -36 0
-21 -22 -34 -37 0
-21 -22 -35 -38 0
-21 -22 -36 -39 0
-21 -22 -37 -40 0
-21 -22 -38 -41 0
-21 -22 -39 -42 0
-21 -22 -40 -43 0
-21 -22 -41 -44 0
-21 -22 -42 -45 0
-21 -22 -43 -46 0
-21 -22 -44 -47 0
-21 -22 -45 -48 0
-21 -22 -46 -49 0
-21 -22 -47 -50 0
-21 -23 -24 -30 0
-21 -23 -24 -32 0
-21 -23 -25 -27 0
-21 -23 -25 -31 0
-21 -23 -25 -35 0
-21 -23 -26 -30 0
-21 -23 -26 -32 0
-21 -23 -26 -38 0
-21 -23 -27 -33 0
-21 -23 -27 -41 0
-21 -23 -28 -34 0
-21 -23 -28 -36 0
-21 -23 -28 -44 0
-21 -23 -29 -35 0
-21 -23 -29 -39 0
-21 -23 -29 -47 0
-21 -23 -30 -36 0
-21 -23 -30 -42 0
-21 -23 -30 -50 0
-21 -23 -31 -37 0
-21 -23 -31 -45 0
-21 -23 -32 -38 0
-21 -23 -32 -48 0
-21 -23 -33 -39 0
-21 -23 -34 -40 0
-21 -23 -35 -41 0
-21 -23 -36 -42 0
-21 -23 -37 -43 0
-21 -23 -38 -44 0
-21 -23 -39 -45 0
-21 -23 -40 -46 0
-21 -23 -41 -47 0
-21 -23 -42 -48 0
-21 -23 -43 -49 0
-21 -23 -44 -50 0
-21 -24 -25 -26 0
-21 -24 -25 -34 0
-21 -24 -25 -36 0
-21 -24 -26 -27 0
-21 -24 -26 -35 0
-21 -24 -26 -39 0
-21 -24 -27 -28 0
-21 -24 -27 -30 0
-21 -24 -27 -36 0
-21 -24 -27 -42 0
-21 -24 -28 -29 0
-21 -24 -28 -33 0
-21 -24 -28 -37 0
-21 -24 -28 -45 0
-21 -24 -29 -30 0
-21 -24 -29 -36 0
-21 -24 -29 -38 0
-21 -24 -29 -48 0
-21 -24 -30 -31 0
-21 -24 -30 -39 0
-21 -24 -31 -32 0
-21 -24 -31 -40 0
-21 -24 -31 -42 0
-21 -24 -32 -33 0
-21 -24 -32 -41 0
-21 -24 -32 -45 0
-21 -24 -33 -34 0
-21 -24 -33 -42 0
-21 -24 -33 -48 0
-21 -24 -34 -35 0
-21 -24 -34 -43 0
-21 -24 -35 -36 0
-21 -24 -35 -44 0
-21 -24 -36 -37 0
-21 -24 -36 -45 0
-21 -24 -37 -38 0
-21 -24 -37 -46 0
-21 -24 -38 -39 0
-21 -24 -38 -47 0
-21 -24 -39 -40 0
-21 -24 -39 -48 0
-21 -24 -40 -41 0
-21 -24 -40 -49 0
-21 -24 -41 -42 0
-21 -24 -41 -50 0
-21 -24 -42 -43 0
-21 -24 -43 -44 0
-21 -24 -44 -45 0
-21 -24 -45 -46 0
-21 -24 -46 -47 0
-21 -24 -47 -48 0
-21 -24 -48 -49 0
-21 -24 -49 -50 0
-21 -25 -26 -38 0
-21 -25 -26 -40 0
-21 -25 -27 -39 0
-21 -25 -27 -43 0
-21 -25 -28 -30 0
-21 -25 -28 -40 0
-21 -25 -28 -46 0
-21 -25 -29 -33 0
-21 -25 -29 -41 0
-21 -25 -29 -49 0
-21 -25 -30 -36 0
-21 -25 -30 -42 0
-21 -25 -31 -39 0
-21 -25 -31 -43 0
-21 -25 -32 -42 0
-21 -25 -32 -44 0
-21 -25 -33 -45 0
-21 -25 -34 -46 0
-21 -25 -34 -48 0
-21 -25 -35 -47 0
-21 -25 -36 -48 0
-21 -25 -37 -49 0
-21 -25 -38 -50 0
-21 -26 -27 -28 0
-21 -26 -27 -42 0
-21 -26 -27 -44 0
-21 -26 -28 -43 0
-21 -26 -28 -47 0
-21 -26 -29 -30 0
-21 -26 -29 -44 0
-21 -26 -29 -50 0
-21 -26 -30 -33 0
-21 -26 -30 -45 0
-21 -26 -31 -36 0
-21 -26 -31 -46 0
-21 -26 -32 -39 0
-21 -26 -32 -47 0
-21 -26 -33 -42 0
-21 -26 -33 -48 0
-21 -26 -34 -45 0
-21 -26 -34 -49 0
-21 -26 -35 -48 0
-21 -26 -35 -50 0
-21 -27 -28 -30 0
-21 -27 -28 -46 0
-21 -27 -28 -48 0
-21 -27 -29 -31 0
-21 -27 -29 -47 0
-21 -27 -30 -32 0
-21 -27 -30 -48 0
-21 -27 -31 -33 0
-21 -27 -31 -49 0
-21 -27 -32 -34 0
-21 -27 -32 -36 0
-21 -27 -32 -50 0
-21 -27 -33 -35 0
-21 -27 -33 -39 0
-21 -27 -34 -36 0
-21 -27 -34 -42 0
-21 -27 -35 -37 0
-21 -27 -35 -45 0
-21 -27 -36 -38 0
-21 -27 -36 -48 0
-21 -27 -37 -39 0
-21 -27 -38 -40 0
-21 -27 -39 -41 0
-21 -27 -40 -42 0
-21 -27 -41 -43 0
-21 -27 -42 -44 0
-21 -27 -43 -45 0
-21 -27 -44 -46 0
-21 -27 -45 -47 0
-21 -27 -46 -48 0
-21 -27 -47 -49 0
-21 -27 -48 -50 0
-21 -28 -29 -50 0
-21 -28 -30 -31 0
-21 -28 -32 -33 0
-21 -28 -33 -36 0
-21 -28 -34 -39 0
-21 -28 -35 -42 0
-21 -28 -36 -45 0
-21 -28 -37 -48 0
-21 -29 -30 -32 0
-21 -29 -34 -36 0
-21 -29 -35 -39 0
-21 -29 -36 -42 0
-21 -29 -37 -45 0
-21 -29 -38 -48 0
-21 -30 -31 -34 0
-21 -30 -32 -35 0
-21 -30 -33 -34 0
-21 -30 -33 -36 0
-21 -30 -34 -37 0
-21 -30 -35 -36 0
-21 -30 -35 -38 0
-21 -30 -36 -39 0
-21 -30 -37 -40 0
-21 -30 -37 -42 0
-21 -30 -38 -41 0
-21 -30 -38 -45 0
-21 -30 -39 -42 0
-21 -30 -39 -48 0
-21 -30 -40 -43 0
-21 -30 -41 -44 0
-21 -30 -42 -45 0
-21 -30 -43 -46 0
-21 -30 -44 -47 0
-21 -30 -45 -48 0
-21 -30 -46 -49 0
-21 -30 -47 -50 0
-21 -31 -33 -35 0
-21 -31 -37 -39 0
-21 -31 -38 -42 0
-21 -31 -39 -45 0
-21 -31 -40 -48 0
-21 -32 -33 -36 0
-21 -32 -36 -37 0
-21 -32 -38 -39 0
-21 -32 -39 -42 0
-21 -32 -40 -45 0
-21 -32 -41 -48 0
-21 -33 -34 -38 0
-21 -33 -35 -39 0
-21 -33 -36 -38 0
-21 -33 -36 -40 0
-21 -33 -37 -41 0
-21 -33 -38 -42 0
-21 -33 -39 -43 0
-21 -33 -40 -42 0
-21 -33 -40 -44 0
-21 -33 -41 -45 0
-21 -33 -42 -46 0
-21 -33 -42 -48 0
-21 -33 -43 -47 0
-21 -33 -44 -48 0
-21 -33 -45 -49 0
-21 -33 -46 -50 0
-21 -34 -36 -39 0
-21 -34 -39 -40 0
-21 -34 -41 -42 0
-21 -34 -42 -45 0
-21 -34 -43 -48 0
-21 -35 -36 -40 0
-21 -35 -39 -41 0
-21 -35 -43 -45 0
-21 -35 -44 -48 0
-21 -36 -37 -42 0
-21 -36 -38 -43 0
-21 -36 -39 -42 0
-21 -36 -39 -44 0
-21 -36 -40 -45 0
-21 -36 -41 -46 0
-21 -36 -42 -43 0
-21 -36 -42 -47 0
-21 -36 -43 -48 0
-21 -36 -44 -45 0
-21 -36 -44 -49 0
-21 -36 -45 -48 0
-21 -36 -45 -50 0
-21 -37 -39 -43 0
-21 -37 -42 -44 0
-21 -37 -46 -48 0
-21 -38 -39 -44 0
-21 -38 -42 -45 0
-21 -38 -45 -46 0
-21 -38 -47 -48 0
-21 -39 -40 -46 0
-21 -39 -41 -47 0
-21 -39 -42 -46 0
-21 -39 -42 -48 0
-21 -39 -43 -49 0
-21 -39 -44 -50 0
-21 -39 -45 -47 0
-21 -40 -42 -47 0
-21 -40 -45 -48 0
-21 -40 -48 -49 0
-21 -41 -42 -48 0
-21 -41 -45 -49 0
-21 -41 -48 -50 0
-21 -42 -43 -50 0
-21 -42 -45 -50 0
-22 -23 -24 -25 0
-22 -23 -24 -27 0
-22 -23 -24 -29 0
-22 -23 -25 -28 0
-22 -23 -25 -32 0
-22 -23 -26 -29 0
-22 -23 -26 -31 0
-22 -23 -26 -35 0
-22 -23 -27 -30 0
-22 -23 -27 -34 0
-22 -23 -27 -38 0
-22 -23 -28 -31 0
-22 -23 -28 -37 0
-22 -23 -28 -41 0
-22 -23 -29 -32 0
-22 -23 -29 -40 0
-22 -23 -29 -44 0
-22 -23 -30 -33 0
-22 -23 -30 -43 0
-22 -23 -30 -47 0
-22 -23 -31 -34 0
-22 -23 -31 -46 0
-22 -23 -31 -50 0
-22 -23 -32 -35 0
-22 -23 -32 -49 0
-22 -23 -33 -36 0
-22 -23 -34 -37 0
-22 -23 -35 -38 0
-22 -23 -36 -39 0
-22 -23 -37 -40 0
-22 -23 -38 -41 0
-22 -23 -39 -42 0
-22 -23 -40 -43 0
-22 -23 -41 -44 0
-22 -23 -42 -45 0
-22 -23 -43 -46 0
-22 -23 -44 -47 0
-22 -23 -45 -48 0
-22 -23 -46 -49 0
-22 -23 -47 -50 0
-22 -24 -25 -31 0
-22 -24 -25 -33 0
-22 -24 -26 -28 0
-22 -24 -26 -32 0
-22 -24 -26 -36 0
-22 -24 -27 -31 0
-22 -24 -27 -33 0
-22 -24 -27 -39 0
-22 -24 -28 -34 0
-22 -24 -28 -42 0
-22 -24 -29 -35 0
-22 -24 -29 -37 0
-22 -24 -29 -45 0
-22 -24 -30 -36 0
-22 -24 -30 -40 0
-22 -24 -30 -48 0
-22 -24 -31 -37 0
-22 -24 -31 -43 0
-22 -24 -32 -38 0
-22 -24 -32 -46 0
-22 -24 -33 -39 0
-22 -24 -33 -49 0
-22 -24 -34 -40 0
-22 -24 -35 -41 0
-22 -24 -36 -42 0
-22 -24 -37 -43 0
-22 -24 -38 -44 0
-22 -24 -39 -45 0
-22 -24 -40 -46 0
-22 -24 -41 -47 0
-22 -24 -42 -48 0
-22 -24 -43 -49 0
-22 -24 -44 -50 0
-22 -25 -26 -27 0
-22 -25 -26 -35 0
-22 -25 -26 -37 0
-22 -25 -27 -28 0
-22 -25 -27 -36 0
-22 -25 -27 -40 0
-22 -25 -28 -29 0
-22 -25 -28 -31 0
-22 -25 -28 -37 0
-22 -25 -28 -43 0
-22 -25 -29 -30 0
-22 -25 -29 -34 0
-22 -25 -29 -38 0
-22 -25 -29 -46 0
-22 -25 -30 -31 0
-22 -25 -30 -37 0
-22 -25 -30 -39 0
-22 -25 -30 -49 0
-22 -25 -31 -32 0
-22 -25 -31 -40 0
-22 -25 -32 -33 0
-22 -25 -32 -41 0
-22 -25 -32 -43 0
-22 -25 -33 -34 0
-22 -25 -33 -42 0
-22 -25 -33 -46 0
-22 -25 -34 -35 0
-22 -25 -34 -43 0
-22 -25 -34 -49 0
-22 -25 -35 -36 0
-22 -25 -35 -44 0
-22 -25 -36 -37 0
-22 -25 -36 -45 0
-22 -25 -37 -38 0
-22 -25 -37 -46 0
-22 -25 -38 -39 0
-22 -25 -38 -47 0
-22 -25 -39 -40 0
-22 -25 -39 -48 0
-22 -25 -40 -41 0
-22 -25 -40 -49 0
-22 -25 -41 -42 0
-22 -25 -41 -50 0
-22 -25 -42 -43 0
-22 -25 -43 -44 0
-22 -25 -44 -45 0
-22 -25 -45 -46 0
-22 -25 -46 -47 0
-22 -25 -47 -48 0
-22 -25 -48 -49 0
-22 -25 -49 -50 0
-22 -26 -27 -39 0
-22 -26 -27 -41 0
-22 -26 -28 -40 0
-22 -26 -28 -44 0
-22 -26 -29 -31 0
-22 -26 -29 -41 0
-22 -26 -29 -47 0
-22 -26 -30 -34 0
-22 -26 -30 -42 0
-22 -26 -30 -50 0
-22 -26 -31 -37 0
-22 -26 -31 -43 0
-22 -26 -32 -40 0
-22 -26 -32 -44 0
-22 -26 -33 -43 0
-22 -26 -33 -45 0
-22 -26 -34 -46 0
-22 -26 -35 -47 0
-22 -26 -35 -49 0
-22 -26 -36 -48 0
-22 -26 -37 -49 0
-22 -26 -38 -50 0
-22 -27 -28 -29 0
-22 -27 -28 -43 0
-22 -27 -28 -45 0
-22 -27 -29 -44 0
-22 -27 -29 -48 0
-22 -27 -30 -31 0
-22 -27 -30 -45 0
-22 -27 -31 -34 0
-22 -27 -31 -46 0
-22 -27 -32 -37 0
-22 -27 -32 -47 0
-22 -27 -33 -40 0
-22 -27 -33 -48 0
-22 -27 -34 -43 0
-22 -27 -34 -49 0
-22 -27 -35 -46 0
-22 -27 -35 -50 0
-22 -27 -36 -49 0
-22 -28 -29 -31 0
-22 -28 -29 -47 0
-22 -28 -29 -49 0
-22 -28 -30 -32 0
-22 -28 -30 -48 0
-22 -28 -31 -33 0
-22 -28 -31 -49 0
-22 -28 -32 -34 0
-22 -28 -32 -50 0
-22 -28 -33 -35 0
-22 -28 -33 -37 0
-22 -28 -34 -36 0
-22 -28 -34 -40 0
-22 -28 -35 -37 0
-22 -28 -35 -43 0
-22 -28 -36 -38 0
-22 -28 -36 -46 0
-22 -28 -37 -39 0
-22 -28 -37 -49 0
-22 -28 -38 -40 0
-22 -28 -39 -41 0
-22 -28 -40 -42 0
-22 -28 -41 -43 0
-22 -28 -42 -44 0
-22 -28 -43 -45 0
-22 -28 -44 -46 0
-22 -28 -45 -47 0
-22 -28 -46 -48 0
-22 -28 -47 -49 0
-22 -28 -48 -50 0
-22 -29 -31 -32 0
-22 -29 -33 -34 0
-22 -29 -34 -37 0
-22 -29 -35 -40 0
-22 -29 -36 -43 0
-22 -29 -37 -46 0
-22 -29 -38 -49 0
-22 -30 -31 -33 0
-22 -30 -35 -37 0
-22 -30 -36 -40 0
-22 -30 -37 -43 0
-22 -30 -38 -46 0
-22 -30 -39 -49 0
-22 -31 -32 -35 0
-22 -31 -33 -36 0
-22 -31 -34 -35 0
-22 -31 -34 -37 0
-22 -31 -35 -38 0
-22 -31 -36 -37 0
-22 -31 -36 -39 0
-22 -31 -37 -40 0
-22 -31 -38 -41 0
-22 -31 -38 -43 0
-22 -31 -39 -42 0
-22 -31 -39 -46 0
-22 -31 -40 -43 0
-22 -31 -40 -49 0
-22 -31 -41 -44 0
-22 -31 -42 -45 0
-22 -31 -43 -46 0
-22 -31 -44 -47 0
-22 -31 -45 -48 0
-22 -31 -46 -49 0
-22 -31 -47 -50 0
-22 -32 -34 -36 0
-22 -32 -38 -40 0
-22 -32 -39 -43 0
-22 -32 -40 -46 0
-22 -32 -41 -49 0
-22 -33 -34 -37 0
-22 -33 -37 -38 0
-22 -33 -39 -40 0
-22 -33 -40 -43 0
-22 -33 -41 -46 0
-22 -33 -42 -49 0
-22 -34 -35 -39 0
-22 -34 -36 -40 0
-22 -34 -37 -39 0
-22 -34 -37 -41 0
-22 -34 -38 -42 0
-22 -34 -39 -43 0
-22 -34 -40 -44 0
-22 -34 -41 -43 0
-22 -34 -41 -45 0
-22 -34 -42 -46 0
-22 -34 -43 -47 0
-22 -34 -43 -49 0
-22 -34 -44 -48 0
-22 -34 -45 -49 0
-22 -34 -46 -50 0
-22 -35 -37 -40 0
-22 -35 -40 -41 0
-22 -35 -42 -43 0
-22 -35 -43 -46 0
-22 -35 -44 -49 0
-22 -36 -37 -41 0
-22 -36 -40 -42 0
-22 -36 -44 -46 0
-22 -36 -45 -49 0
-22 -37 -38 -43 0
-22 -37 -39 -44 0
-22 -37 -40 -43 0
-22 -37 -40 -45 0
-22 -37 -41 -46 0
-22 -37 -42 -47 0
-22 -37 -43 -44 0
-22 -37 -43 -48 0
-22 -37 -44 -49 0
-22 -37 -45 -46 0
-22 -37 -45 -50 0
-22 -37 -46 -49 0
-22 -38 -40 -44 0
-22 -38 -43 -45 0
-22 -38 -47 -49 0
-22 -39 -40 -45 0
-22 -39 -43 -46 0
-22 -39 -46 -47 0
-22 -39 -48 -49 0
-22 -40 -41 -47 0
-22 -40 -42 -48 0
-22 -40 -43 -47 0
-22 -40 -43 -49 0
-22 -40 -44 -50 0
-22 -40 -46 -48 0
-22 -41 -43 -48 0
-22 -41 -46 -49 0
-22 -41 -49 -50 0
-22 -42 -43 -49 0
-22 -42 -46 -50 0
-23 -24 -25 -26 0
-23 -24 -25 -28 0
-23 -24 -25 -30 0
-23 -24 -26 -29 0
-23 -24 -26 -33 0
-23 -24 -27 -30 0
-23 -24 -27 -32 0
-23 -24 -27 -36 0
-23 -24 -28 -31 0
-23 -24 -28 -35 0
-23 -24 -28 -39 0
-23 -24 -29 -32 0
-23 -24 -29 -38 0
-23 -24 -29 -42 0
-23 -24 -30 -33 0
-23 -24 -30 -41 0
-23 -24 -30 -45 0
-23 -24 -31 -34 0
-23 -24 -31 -44 0
-23 -24 -31 -48 0
-23 -24 -32 -35 0
-23 -24 -32 -47 0
-23 -24 -33 -36 0
-23 -24 -33 -50 0
-23 -24 -34 -37 0
-23 -24 -35 -38 0
-23 -24 -36 -39 0
-23 -24 -37 -40 0
-23 -24 -38 -41 0
-23 -24 -39 -42 0
-23 -24 -40 -43 0
-23 -24 -41 -44 0
-23 -24 -42 -45 0
-23 -24 -43 -46 0
-23 -24 -44 -47 0
-23 -24 -45 -48 0
-23 -24 -46 -49 0
-23 -24 -47 -50 0
-23 -25 -26 -32 0
-23 -25 -26 -34 0
-23 -25 -27 -29 0
-23 -25 -27 -33 0
-23 -25 -27 -37 0
-23 -25 -28 -32 0
-23 -25 -28 -34 0
-23 -25 -28 -40 0
-23 -25 -29 -35 0
-23 -25 -29 -43 0
-23 -25 -30 -36 0
-23 -25 -30 -38 0
-23 -25 -30 -46 0
-23 -25 -31 -37 0
-23 -25 -31 -41 0
-23 -25 -31 -49 0
-23 -25 -32 -38 0
-23 -25 -32 -44 0
-23 -25 -33 -39 0
-23 -25 -33 -47 0
-23 -25 -34 -40 0
-23 -25 -34 -50 0
-23 -25 -35 -41 0
-23 -25 -36 -42 0
-23 -25 -37 -43 0
-23 -25 -38 -44 0
-23 -25 -39 -45 0
-23 -25 -40 -46 0
-23 -25 -41 -47 0
-23 -25 -42 -48 0
-23 -25 -43 -49 0
-23 -25 -44 -50 0
-23 -26 -27 -28 0
-23 -26 -27 -36 0
-23 -26 -27 -38 0
-23 -26 -28 -29 0
-23 -26 -28 -37 0
-23 -26 -28 -41 0
-23 -26 -29 -30 0
-23 -26 -29 -32 0
-23 -26 -29 -38 0
-23 -26 -29 -44 0
-23 -26 -30 -31 0
-23 -26 -30 -35 0
-23 -26 -30 -39 0
-23 -26 -30 -47 0
-23 -26 -31 -32 0
-23 -26 -31 -38 0
-23 -26 -31 -40 0
-23 -26 -31 -50 0
-23 -26 -32 -33 0
-23 -26 -32 -41 0
-23 -26 -33 -34 0
-23 -26 -33 -42 0
-23 -26 -33 -44 0
-23 -26 -34 -35 0
-23 -26 -34 -43 0
-23 -26 -34 -47 0
-23 -26 -35 -36 0
-23 -26 -35 -44 0
-23 -26 -35 -50 0
-23 -26 -36 -37 0
-23 -26 -36 -45 0
-23 -26 -37 -38 0
-23 -26 -37 -46 0
-23 -26 -38 -39 0
-23 -26 -38 -47 0
-23 -26 -39 -40 0
-23 -26 -39 -48 0
-23 -26 -40 -41 0
-23 -26 -40 -49 0
-23 -26 -41 -42 0
-23 -26 -41 -50 0
-23 -26 -42 -43 0
-23 -26 -43 -44 0
-23 -26 -44 -45 0
-23 -26 -45 -46 0
-23 -26 -46 -47 0
-23 -26 -47 -48 0
-23 -26 -48 -49 0
-23 -26 -49 -50 0
-23 -27 -28 -40 0
-23 -27 -28 -42 0
-23 -27 -29 -41 0
-23 -27 -29 -45 0
-23 -27 -30 -32 0
-23 -27 -30 -42 0
-23 -27 -30 -48 0
-23 -27 -31 -35 0
-23 -27 -31 -43 0
-23 -27 -32 -38 0
-23 -27 -32 -44 0
-23 -27 -33 -41 0
-23 -27 -33 -45 0
-23 -27 -34 -44 0
-23 -27 -34 -46 0
-23 -27 -35 -47 0
-23 -27 -36 -48 0
-23 -27 -36 -50 0
-23 -27 -37 -49 0
-23 -27 -38 -50 0
-23 -28 -29 -30 0
-23 -28 -29 -44 0
-23 -28 -29 -46 0
-23 -28 -30 -45 0
-23 -28 -30 -49 0
-23 -28 -31 -32 0
-23 -28 -31 -46 0
-23 -28 -32 -35 0
-23 -28 -32 -47 0
-23 -28 -33 -38 0
-23 -28 -33 -48 0
-23 -28 -34 -41 0
-23 -28 -34 -49 0
-23 -28 -35 -44 0
-23 -28 -35 -50 0
-23 -28 -36 -47 0
-23 -28 -37 -50 0
-23 -29 -30 -32 0
-23 -29 -30 -48 0
-23 -29 -30 -50 0
-23 -29 -31 -33 0
-23 -29 -31 -49 0
-23 -29 -32 -34 0
-23 -29 -32 -50 0
-23 -29 -33 -35 0
-23 -29 -34 -36 0
-23 -29 -34 -38 0
-23 -29 -35 -37 0
-23 -29 -35 -41 0
-23 -29 -36 -38 0
-23 -29 -36 -44 0
-23 -29 -37 -39 0
-23 -29 -37 -47 0
-23 -29 -38 -40 0
-23 -29 -38 -50 0
-23 -29 -39 -41 0
-23 -29 -40 -42 0
-23 -29 -41 -43 0
-23 -29 -42 -44 0
-23 -29 -43 -45 0
-23 -29 -44 -46 0
-23 -29 -45 -47 0
-23 -29 -46 -48 0
-23 -29 -47 -49 0
-23 -29 -48 -50 0
-23 -30 -32 -33 0
-23 -30 -34 -35 0
-23 -30 -35 -38 0
-23 -30 -36 -41 0
-23 -30 -37 -44 0
-23 -30 -38 -47 0
-23 -30 -39 -50 0
-23 -31 -32 -34 0
-23 -31 -36 -38 0
-23 -31 -37 -41 0
-23 -31 -38 -44 0
-23 -31 -39 -47 0
-23 -31 -40 -50 0
-23 -32 -33 -36 0
-23 -32 -34 -37 0
-23 -32 -35 -36 0
-23 -32 -35 -38 0
-23 -32 -36 -39 0
-23 -32 -37 -38 0
-23 -32 -37 -40 0
-23 -32 -38 -41 0
-23 -32 -39 -42 0
-23 -32 -39 -44 0
-23 -32 -40 -43 0
-23 -32 -40 -47 0
-23 -32 -41 -44 0
-23 -32 -41 -50 0
-23 -32 -42 -45 0
-23 -32 -43 -46 0
-23 -32 -44 -47 0
-23 -32 -45 -48 0
-23 -32 -46 -49 0
-23 -32 -47 -50 0
-23 -33 -35 -37 0
-23 -33 -39 -41 0
-23 -33 -40 -44 0
-23 -33 -41 -47 0
-23 -33 -42 -50 0
-23 -34 -35 -38 0
-23 -34 -38 -39 0
-23 -34 -40 -41 0
-23 -34 -41 -44 0
-23 -34 -42 -47 0
-23 -34 -43 -50 0
-23 -35 -36 -40 0
-23 -35 -37 -41 0
-23 -35 -38 -40 0
-23 -35 -38 -42 0
-23 -35 -39 -43 0
-23 -35 -40 -44 0
-23 -35 -41 -45 0
-23 -35 -42 -44 0
-23 -35 -42 -46 0
-23 -35 -43 -47 0
-23 -35 -44 -48 0
-23 -35 -44 -50 0
-23 -35 -45 -49 0
-23 -35 -46 -50 0
-23 -36 -38 -41 0
-23 -36 -41 -42 0
-23 -36 -43 -44 0
-23 -36 -44 -47 0
-23 -36 -45 -50 0
-23 -37 -38 -42 0
-23 -37 -41 -43 0
-23 -37 -45 -47 0
-23 -37 -46 -50 0
-23 -38 -39 -44 0
-23 -38 -40 -45 0
-23 -38 -41 -44 0
-23 -38 -41 -46 0
-23 -38 -42 -47 0
-23 -38 -43 -48 0
-23 -38 -44 -45 0
-23 -38 -44 -49 0
-23 -38 -45 -50 0
-23 -38 -46 -47 0
-23 -38 -47 -50 0
-23 -39 -41 -45 0
-23 -39 -44 -46 0
-23 -39 -48 -50 0
-23 -40 -41 -46 0
-23 -40 -44 -47 0
-23 -40 -47 -48 0
-23 -40 -49 -50 0
-23 -41 -42 -48 0
-23 -41 -43 -49 0
-23 -41 -44 -48 0
-23 -41 -44 -50 0
-23 -41 -47 -49 0
-23 -42 -44 -49 0
-23 -42 -47 -50 0
-23 -43 -44 -50 0
-24 -25 -26 -27 0
-24 -25 -26 -29 0
-24 -25 -26 -31 0
-24 -25 -27 -30 0
-24 -25 -27 -34 0
-24 -25 -28 -31 0
-24 -25 -28 -33 0
-24 -25 -28 -37 0
-24 -25 -29 -32 0
-24 -25 -29 -36 0
-24 -25 -29 -40 0
-24 -25 -30 -33 0
-24 -25 -30 -39 0
-24 -25 -30 -43 0
-24 -25 -31 -34 0
-24 -25 -31 -42 0
-24 -25 -31 -46 0
-24 -25 -32 -35 0
-24 -25 -32 -45 0
-24 -25 -32 -49 0
-24 -25 -33 -36 0
-24 -25 -33 -48 0
-24 -25 -34 -37 0
-24 -25 -35 -38 0
-24 -25 -36 -39 0
-24 -25 -37 -40 0
-24 -25 -38 -41 0
-24 -25 -39 -42 0
-24 -25 -40 -43 0
-24 -25 -41 -44 0
-24 -25 -42 -45 0
-24 -25 -43 -46 0
-24 -25 -44 -47 0
-24 -25 -45 -48 0
-24 -25 -46 -49 0
-24 -25 -47 -50 0
-24 -26 -27 -33 0
-24 -26 -27 -35 0
-24 -26 -28 -30 0
-24 -26 -28 -34 0
-24 -26 -28 -38 0
-24 -26 -29 -33 0
-24 -26 -29 -35 0
-24 -26 -29 -41 0
-24 -26 -30 -36 0
-24 -26 -30 -44 0
-24 -26 -31 -37 0
-24 -26 -31 -39 0
-24 -26 -31 -47 0
-24 -26 -32 -38 0
-24 -26 -32 -42 0
-24 -26 -32 -50 0
-24 -26 -33 -39 0
-24 -26 -33 -45 0
-24 -26 -34 -40 0
-24 -26 -34 -48 0
-24 -26 -35 -41 0
-24 -26 -36 -42 0
-24 -26 -37 -43 0
-24 -26 -38 -44 0
-24 -26 -39 -45 0
-24 -26 -40 -46 0
-24 -26 -41 -47 0
-24 -26 -42 -48 0
-24 -26 -43 -49 0
-24 -26 -44 -50 0
-24 -27 -28 -29 0
-24 -27 -28 -37 0
-24 -27 -28 -39 0
-24 -27 -29 -30 0
-24 -27 -29 -38 0
-24 -27 -29 -42 0
-24 -27 -30 -31 0
-24 -27 -30 -33 0
-24 -27 -30 -39 0
-24 -27 -30 -45 0
-24 -27 -31 -32 0
-24 -27 -31 -36 0
-24 -27 -31 -40 0
-24 -27 -31 -48 0
-24 -27 -32 -33 0
-24 -27 -32 -39 0
-24 -27 -32 -41 0
-24 -27 -33 -34 0
-24 -27 -33 -42 0
-24 -27 -34 -35 0
-24 -27 -34 -43 0
-24 -27 -34 -45 0
-24 -27 -35 -36 0
-24 -27 -35 -44 0
-24 -27 -35 -48 0
-24 -27 -36 -37 0
-24 -27 -36 -45 0
-24 -27 -37 -38 0
-24 -27 -37 -46 0
-24 -27 -38 -39 0
-24 -27 -38 -47 0
-24 -27 -39 -40 0
-24 -27 -39 -48 0
-24 -27 -40 -41 0
-24 -27 -40 -49 0
-24 -27 -41 -42 0
-24 -27 -41 -50 0
-24 -27 -42 -43 0
-24 -27 -43 -44 0
-24 -27 -44 -45 0
-24 -27 -45 -46 0
-24 -27 -46 -47 0
-24 -27 -47 -48 0
-24 -27 -48 -49 0
-24 -27 -49 -50 0
-24 -28 -29 -41 0
-24 -28 -29 -43 0
-24 -28 -30 -42 0
-24 -28 -30 -46 0
-24 -28 -31 -33 0
-24 -28 -31 -43 0
-24 -28 -31 -49 0
-24 -28 -32 -36 0
-24 -28 -32 -44 0
-24 -28 -33 -39 0
-24 -28 -33 -45 0
-24 -28 -34 -42 0
-24 -28 -34 -46 0
-24 -28 -35 -45 0
-24 -28 -35 -47 0
-24 -28 -36 -48 0
-24 -28 -37 -49 0
-24 -28 -38 -50 0
-24 -29 -30 -31 0
-24 -29 -30 -45 0
-24 -29 -30 -47 0
-24 -29 -31 -46 0
-24 -29 -31 -50 0
-24 -29 -32 -33 0
-24 -29 -32 -47 0
-24 -29 -33 -36 0
-24 -29 -33 -48 0
-24 -29 -34 -39 0
-24 -29 -34 -49 0
-24 -29 -35 -42 0
-24 -29 -35 -50 0
-24 -29 -36 -45 0
-24 -29 -37 -48 0
-24 -30 -31 -33 0
-24 -30 -31 -49 0
-24 -30 -32 -34 0
-24 -30 -32 -50 0
-24 -30 -33 -35 0
-24 -30 -34 -36 0
-24 -30 -35 -37 0
-24 -30 -35 -39 0
-24 -30 -36 -38 0
-24 -30 -36 -42 0
-24 -30 -37 -39 0
-24 -30 -37 -45 0
-24 -30 -38 -40 0
-24 -30 -38 -48 0
-24 -30 -39 -41 0
-24 -30 -40 -42 0
-24 -30 -41 -43 0
-24 -30 -42 -44 0
-24 -30 -43 -45 0
-24 -30 -44 -46 0
-24 -30 -45 -47 0
-24 -30 -46 -48 0
-24 -30 -47 -49 0
-24 -30 -48 -50 0
-24 -31 -33 -34 0
-24 -31 -35 -36 0
-24 -31 -36 -39 0
-24 -31 -37 -42 0
-24 -31 -38 -45 0
-24 -31 -39 -48 0
-24 -32 -33 -35 0
-24 -32 -37 -39 0
-24 -32 -38 -42 0
-24 -32 -39 -45 0
-24 -32 -40 -48 0
-24 -33 -34 -37 0
-24 -33 -35 -38 0
-24 -33 -36 -37 0
-24 -33 -36 -39 0
-24 -33 -37 -40 0
-24 -33 -38 -39 0
-24 -33 -38 -41 0
-24 -33 -39 -42 0
-24 -33 -40 -43 0
-24 -33 -40 -45 0
-24 -33 -41 -44 0
-24 -33 -41 -48 0
-24 -33 -42 -45 0
-24 -33 -43 -46 0
-24 -33 -44 -47 0
-24 -33 -45 -48 0
-24 -33 -46 -49 0
-24 -33 -47 -50 0
-24 -34 -36 -38 0
-24 -34 -40 -42 0
-24 -34 -41 -45 0
-24 -34 -42 -48 0
-24 -35 -36 -39 0
-24 -35 -39 -40 0
-24 -35 -41 -42 0
-24 -35 -42 -45 0
-24 -35 -43 -48 0
-24 -36 -37 -41 0
-24 -36 -38 -42 0
-24 -36 -39 -41 0
-24 -36 -39 -43 0
-24 -36 -40 -44 0
-24 -36 -41 -45 0
-24 -36 -42 -46 0
-24 -36 -43 -45 0
-24 -36 -43 -47 0
-24 -36 -44 -48 0
-24 -36 -45 -49 0
-24 -36 -46 -50 0
-24 -37 -39 -42 0
-24 -37 -42 -43 0
-24 -37 -44 -45 0
-24 -37 -45 -48 0
-24 -38 -39 -43 0
-24 -38 -42 -44 0
-24 -38 -46 -48 0
-24 -39 -40 -45 0
-24 -39 -41 -46 0
-24 -39 -42 -45 0
-24 -39 -42 -47 0
-24 -39 -43 -48 0
-24 -39 -44 -49 0
-24 -39 -45 -46 0
-24 -39 -45 -50 0
-24 -39 -47 -48 0
-24 -40 -42 -46 0
-24 -40 -45 -47 0
-24 -41 -42 -47 0
-24 -41 -45 -48 0
-24 -41 -48 -49 0
-24 -42 -43 -49 0
-24 -42 -44 -50 0
-24 -42 -45 -49 0
-24 -42 -48 -50 0
-24 -43 -45 -50 0
-25 -26 -27 -28 0
-25 -26 -27 -30 0
-25 -26 -27 -32 0
-25 -26 -28 -31 0
-25 -26 -28 -35 0
-25 -26 -29 -32 0
-25 -26 -29 -34 0
-25 -26 -29 -38 0
-25 -26 -30 -33 0
-25 -26 -30 -37 0
-25 -26 -30 -41 0
-25 -26 -31 -34 0
-25 -26 -31 -40 0
-25 -26 -31 -44 0
-25 -26 -32 -35 0
-25 -26 -32 -43 0
-25 -26 -32 -47 0
-25 -26 -33 -36 0
-25 -26 -33 -46 0
-25 -26 -33 -50 0
-25 -26 -34 -37 0
-25 -26 -34 -49 0
-25 -26 -35 -38 0
-25 -26 -36 -39 0
-25 -26 -37 -40 0
-25 -26 -38 -41 0
-25 -26 -39 -42 0
-25 -26 -40 -43 0
-25 -26 -41 -44 0
-25 -26 -42 -45 0
-25 -26 -43 -46 0
-25 -26 -44 -47 0
-25 -26 -45 -48 0
-25 -26 -46 -49 0
-25 -26 -47 -50 0
-25 -27 -28 -34 0
-25 -27 -28 -36 0
-25 -27 -29 -31 0
-25 -27 -29 -35 0
-25 -27 -29 -39 0
-25 -27 -30 -34 0
-25 -27 -30 -36 0
-25 -27 -30 -42 0
-25 -27 -31 -37 0
-25 -27 -31 -45 0
-25 -27 -32 -38 0
-25 -27 -32 -40 0
-25 -27 -32 -48 0
-25 -27 -33 -39 0
-25 -27 -33 -43 0
-25 -27 -34 -40 0
-25 -27 -34 -46 0
-25 -27 -35 -41 0
-25 -27 -35 -49 0
-25 -27 -36 -42 0
-25 -27 -37 -43 0
-25 -27 -38 -44 0
-25 -27 -39 -45 0
-25 -27 -40 -46 0
-25 -27 -41 -47 0
-25 -27 -42 -48 0
-25 -27 -43 -49 0
-25 -27 -44 -50 0
-25 -28 -29 -30 0
-25 -28 -29 -38 0
-25 -28 -29 -40 0
-25 -28 -30 -31 0
-25 -28 -30 -39 0
-25 -28 -30 -43 0
-25 -28 -31 -32 0
-25 -28 -31 -34 0
-25 -28 -31 -40 0
-25 -28 -31 -46 0
-25 -28 -32 -33 0
-25 -28 -32 -37 0
-25 -28 -32 -41 0
-25 -28 -32 -49 0
-25 -28 -33 -34 0
-25 -28 -33 -40 0
-25 -28 -33 -42 0
-25 -28 -34 -35 0
-25 -28 -34 -43 0
-25 -28 -35 -36 0
-25 -28 -35 -44 0
-25 -28 -35 -46 0
-25 -28 -36 -37 0
-25 -28 -36 -45 0
-25 -28 -36 -49 0
-25 -28 -37 -38 0
-25 -28 -37 -46 0
-25 -28 -38 -39 0
-25 -28 -38 -47 0
-25 -28 -39 -40 0
-25 -28 -39 -48 0
-25 -28 -40 -41 0
-25 -28 -40 -49 0
-25 -28 -41 -42 0
-25 -28 -41 -50 0
-25 -28 -42 -43 0
-25 -28 -43 -44 0
-25 -28 -44 -45 0
-25 -28 -45 -46 0
-25 -28 -46 -47 0
-25 -28 -47 -48 0
-25 -28 -48 -49 0
-25 -28 -49 -50 0
-25 -29 -30 -42 0
-25 -29 -30 -44 0
-25 -29 -31 -43 0
-25 -29 -31 -47 0
-25 -29 -32 -34 0
-25 -29 -32 -44 0
-25 -29 -32 -50 0
-25 -29 -33 -37 0
-25 -29 -33 -45 0
-25 -29 -34 -40 0
-25 -29 -34 -46 0
-25 -29 -35 -43 0
-25 -29 -35 -47 0
-25 -29 -36 -46 0
-25 -29 -36 -48 0
-25 -29 -37 -49 0
-25 -29 -38 -50 0
-25 -30 -31 -32 0
-25 -30 -31 -46 0
-25 -30 -31 -48 0
-25 -30 -32 -47 0
-25 -30 -33 -34 0
-25 -30 -33 -48 0
-25 -30 -34 -37 0
-25 -30 -34 -49 0
-25 -30 -35 -40 0
-25 -30 -35 -50 0
-25 -30 -36 -43 0
-25 -30 -37 -46 0
-25 -30 -38 -49 0
-25 -31 -32 -34 0
-25 -31 -32 -50 0
-25 -31 -33 -35 0
-25 -31 -34 -36 0
-25 -31 -35 -37 0
-25 -31 -36 -38 0
-25 -31 -36 -40 0
-25 -31 -37 -39 0
-25 -31 -37 -43 0
-25 -31 -38 -40 0
-25 -31 -38 -46 0
-25 -31 -39 -41 0
-25 -31 -39 -49 0
-25 -31 -40 -42 0
-25 -31 -41 -43 0
-25 -31 -42 -44 0
-25 -31 -43 -45 0
-25 -31 -44 -46 0
-25 -31 -45 -47 0
-25 -31 -46 -48 0
-25 -31 -47 -49 0
-25 -31 -48 -50 0
-25 -32 -34 -35 0
-25 -32 -36 -37 0
-25 -32 -37 -40 0
-25 -32 -38 -43 0
-25 -32 -39 -46 0
-25 -32 -40 -49 0
-25 -33 -34 -36 0
-25 -33 -38 -40 0
-25 -33 -39 -43 0
-25 -33 -40 -46 0
-25 -33 -41 -49 0
-25 -34 -35 -38 0
-25 -34 -36 -39 0
-25 -34 -37 -38 0
-25 -34 -37 -40 0
-25 -34 -38 -41 0
-25 -34 -39 -40 0
-25 -34 -39 -42 0
-25 -34 -40 -43 0
-25 -34 -41 -44 0
-25 -34 -41 -46 0
-25 -34 -42 -45 0
-25 -34 -42 -49 0
-25 -34 -43 -46 0
-25 -34 -44 -47 0
-25 -34 -45 -48 0
-25 -34 -46 -49 0
-25 -34 -47 -50 0
-25 -35 -37 -39 0
-25 -35 -41 -43 0
-25 -35 -42 -46 0
-25 -35 -43 -49 0
-25 -36 -37 -40 0
-25 -36 -40 -41 0
-25 -36 -42 -43 0
-25 -36 -43 -46 0
-25 -36 -44 -49 0
-25 -37 -38 -42 0
-25 -37 -39 -43 0
-25 -37 -40 -42 0
-25 -37 -40 -44 0
-25 -37 -41 -45 0
-25 -37 -42 -46 0
-25 -37 -43 -47 0
-25 -37 -44 -46 0
-25 -37 -44 -48 0
-25 -37 -45 -49 0
-25 -37 -46 -50 0
-25 -38 -40 -43 0
-25 -38 -43 -44 0
-25 -38 -45 -46 0
-25 -38 -46 -49 0
-25 -39 -40 -44 0
-25 -39 -43 -45 0
-25 -39 -47 -49 0
-25 -40 -41 -46 0
-25 -40 -42 -47 0
-25 -40 -43 -46 0
-25 -40 -43 -48 0
-25 -40 -44 -49 0
-25 -40 -45 -50 0
-25 -40 -46 -47 0
-25 -40 -48 -49 0
-25 -41 -43 -47 0
-25 -41 -46 -48 0
-25 -42 -43 -48 0
-25 -42 -46 -49 0
-25 -42 -49 -50 0
-25 -43 -44 -50 0
-25 -43 -46 -50 0
-26 -27 -28 -29 0
-26 -27 -28 -31 0
-26 -27 -28 -33 0
-26 -27 -29 -32 0
-26 -27 -29 -36 0
-26 -27 -30 -33 0
-26 -27 -30 -35 0
-26 -27 -30 -39 0
-26 -27 -31 -34 0
-26 -27 -31 -38 0
-26 -27 -31 -42 0
-26 -27 -32 -35 0
-26 -27 -32 -41 0
-26 -27 -32 -45 0
-26 -27 -33 -36 0
-26 -27 -33 -44 0
-26 -27 -33 -48 0
-26 -27 -34 -37 0
-26 -27 -34 -47 0
-26 -27 -35 -38 0
-26 -27 -35 -50 0
-26 -27 -36 -39 0
-26 -27 -37 -40 0
-26 -27 -38 -41 0
-26 -27 -39 -42 0
-26 -27 -40 -43 0
-26 -27 -41 -44 0
-26 -27 -42 -45 0
-26 -27 -43 -46 0
-26 -27 -44 -47 0
-26 -27 -45 -48 0
-26 -27 -46 -49 0
-26 -27 -47 -50 0
-26 -28 -29 -35 0
-26 -28 -29 -37 0
-26 -28 -30 -32 0
-26 -28 -30 -36 0
-26 -28 -30 -40 0
-26 -28 -31 -35 0
-26 -28 -31 -37 0
-26 -28 -31 -43 0
-26 -28 -32 -38 0
-26 -28 -32 -46 0
-26 -28 -33 -39 0
-26 -28 -33 -41 0
-26 -28 -33 -49 0
-26 -28 -34 -40 0
-26 -28 -34 -44 0
-26 -28 -35 -41 0
-26 -28 -35 -47 0
-26 -28 -36 -42 0
-26 -28 -36 -50 0
-26 -28 -37 -43 0
-26 -28 -38 -44 0
-26 -28 -39 -45 0
-26 -28 -40 -46 0
-26 -28 -41 -47 0
-26 -28 -42 -48 0
-26 -28 -43 -49 0
-26 -28 -44 -50 0
-26 -29 -30 -31 0
-26 -29 -30 -39 0
-26 -29 -30 -41 0
-26 -29 -31 -32 0
-26 -29 -31 -40 0
-26 -29 -31 -44 0
-26 -29 -32 -33 0
-26 -29 -32 -35 0
-26 -29 -32 -41 0
-26 -29 -32 -47 0
-26 -29 -33 -34 0
-26 -29 -33 -38 0
-26 -29 -33 -42 0
-26 -29 -33 -50 0
-26 -29 -34 -35 0
-26 -29 -34 -41 0
-26 -29 -34 -43 0
-26 -29 -35 -36 0
-26 -29 -35 -44 0
-26 -29 -36 -37 0
-26 -29 -36 -45 0
-26 -29 -36 -47 0
-26 -29 -37 -38 0
-26 -29 -37 -46 0
-26 -29 -37 -50 0
-26 -29 -38 -39 0
-26 -29 -38 -47 0
-26 -29 -39 -40 0
-26 -29 -39 -48 0
-26 -29 -40 -41 0
-26 -29 -40 -49 0
-26 -29 -41 -42 0
-26 -29 -41 -50 0
-26 -29 -42 -43 0
-26 -29 -43 -44 0
-26 -29 -44 -45 0
-26 -29 -45 -46 0
-26 -29 -46 -47 0
-26 -29 -47 -48 0
-26 -29 -48 -49 0
-26 -29 -49 -50 0
-26 -30 -31 -43 0
-26 -30 -31 -45 0
-26 -30 -32 -44 0
-26 -30 -32 -48 0
-26 -30 -33 -35 0
-26 -30 -33 -45 0
-26 -30 -34 -38 0
-26 -30 -34 -46 0
-26 -30 -35 -41 0
-26 -30 -35 -47 0
-26 -30 -36 -44 0
-26 -30 -36 -48 0
-26 -30 -37 -47 0
-26 -30 -37 -49 0
-26 -30 -38 -50 0
-26 -31 -32 -33 0
-26 -31 -32 -47 0
-26 -31 -32 -49 0
-26 -31 -33 -48 0
-26 -31 -34 -35 0
-26 -31 -34 -49 0
-26 -31 -35 -38 0
-26 -31 -35 -50 0
-26 -31 -36 -41 0
-26 -31 -37 -44 0
-26 -31 -38 -47 0
-26 -31 -39 -50 0
-26 -32 -33 -35 0
-26 -32 -34 -36 0
-26 -32 -35 -37 0
-26 -32 -36 -38 0
-26 -32 -37 -39 0
-26 -32 -37 -41 0
-26 -32 -38 -40 0
-26 -32 -38 -44 0
-26 -32 -39 -41 0
-26 -32 -39 -47 0
-26 -32 -40 -42 0
-26 -32 -40 -50 0
-26 -32 -41 -43 0
-26 -32 -42 -44 0
-26 -32 -43 -45 0
-26 -32 -44 -46 0
-26 -32 -45 -47 0
-26 -32 -46 -48 0
-26 -32 -47 -49 0
-26 -32 -48 -50 0
-26 -33 -35 -36 0
-26 -33 -37 -38 0
-26 -33 -38 -41 0
-26 -33 -39 -44 0
-26 -33 -40 -47 0
-26 -33 -41 -50 0
-26 -34 -35 -37 0
-26 -34 -39 -41 0
-26 -34 -40 -44 0
-26 -34 -41 -47 0
-26 -34 -42 -50 0
-26 -35 -36 -39 0
-26 -35 -37 -40 0
-26 -35 -38 -39 0
-26 -35 -38 -41 0
-26 -35 -39 -42 0
-26 -35 -40 -41 0
-26 -35 -40 -43 0
-26 -35 -41 -44 0
-26 -35 -42 -45 0
-26 -35 -42 -47 0
-26 -35 -43 -46 0
-26 -35 -43 -50 0
-26 -35 -44 -47 0
-26 -35 -45 -48 0
-26 -35 -46 -49 0
-26 -35 -47 -50 0
-26 -36 -38 -40 0
-26 -36 -42 -44 0
-26 -36 -43 -47 0
-26 -36 -44 -50 0
-26 -37 -38 -41 0
-26 -37 -41 -42 0
-26 -37 -43 -44 0
-26 -37 -44 -47 0
-26 -37 -45 -50 0
-26 -38 -39 -43 0
-26 -38 -40 -44 0
-26 -38 -41 -43 0
-26 -38 -41 -45 0
-26 -38 -42 -46 0
-26 -38 -43 -47 0
-26 -38 -44 -48 0
-26 -38 -45 -47 0
-26 -38 -45 -49 0
-26 -38 -46 -50 0
-26 -39 -41 -44 0
-26 -39 -44 -45 0
-26 -39 -46 -47 0
-26 -39 -47 -50 0
-26 -40 -41 -45 0
-26 -40 -44 -46 0
-26 -40 -48 -50 0
-26 -41 -42 -47 0
-26 -41 -43 -48 0
-26 -41 -44 -47 0
-26 -41 -44 -49 0
-26 -41 -45 -50 0
-26 -41 -47 -48 0
-26 -41 -49 -50 0
-26 -42 -44 -48 0
-26 -42 -47 -49 0
-26 -43 -44 -49 0
-26 -43 -47 -50 0
-27 -28 -29 -30 0
-27 -28 -29 -32 0
-27 -28 -29 -34 0
-27 -28 -30 -33 0
-27 -28 -30 -37 0
-27 -28 -31 -34 0
-27 -28 -31 -36 0
-27 -28 -31 -40 0
-27 -28 -32 -35 0
-27 -28 -32 -39 0
-27 -28 -32 -43 0
-27 -28 -33 -36 0
-27 -28 -33 -42 0
-27 -28 -33 -46 0
-27 -28 -34 -37 0
-27 -28 -34 -45 0
-27 -28 -34 -49 0
-27 -28 -35 -38 0
-27 -28 -35 -48 0
-27 -28 -36 -39 0
-27 -28 -37 -40 0
-27 -28 -38 -41 0
-27 -28 -39 -42 0
-27 -28 -40 -43 0
-27 -28 -41 -44 0
-27 -28 -42 -45 0
-27 -28 -43 -46 0
-27 -28 -44 -47 0
-27 -28 -45 -48 0
-27 -28 -46 -49 0
-27 -28 -47 -50 0
-27 -29 -30 -36 0
-27 -29 -30 -38 0
-27 -29 -31 -33 0
-27 -29 -31 -37 0
-27 -29 -31 -41 0
-27 -29 -32 -36 0
-27 -29 -32 -38 0
-27 -29 -32 -44 0
-27 -29 -33 -39 0
-27 -29 -33 -47 0
-27 -29 -34 -40 0
-27 -29 -34 -42 0
-27 -29 -34 -50 0
-27 -29 -35 -41 0
-27 -29 -35 -45 0
-27 -29 -36 -42 0
-27 -29 -36 -48 0
-27 -29 -37 -43 0
-27 -29 -38 -44 0
-27 -29 -39 -45 0
-27 -29 -40 -46 0
-27 -29 -41 -47 0
-27 -29 -42 -48 0
-27 -29 -43 -49 0
-27 -29 -44 -50 0
-27 -30 -31 -32 0
-27 -30 -31 -40 0
-27 -30 -31 -42 0
-27 -30 -32 -33 0
-27 -30 -32 -41 0
-27 -30 -32 -45 0
-27 -30 -33 -34 0
-27 -30 -33 -36 0
-27 -30 -33 -42 0
-27 -30 -33 -48 0
-27 -30 -34 -35 0
-27 -30 -34 -39 0
-27 -30 -34 -43 0
-27 -30 -35 -36 0
-27 -30 -35 -42 0
-27 -30 -35 -44 0
-27 -30 -36 -37 0
-27 -30 -36 -45 0
-27 -30 -37 -38 0
-27 -30 -37 -46 0
-27 -30 -37 -48 0
-27 -30 -38 -39 0
-27 -30 -38 -47 0
-27 -30 -39 -40 0
-27 -30 -39 -48 0
-27 -30 -40 -41 0
-27 -30 -40 -49 0
-27 -30 -41 -42 0
-27 -30 -41 -50 0
-27 -30 -42 -43 0
-27 -30 -43 -44 0
-27 -30 -44 -45 0
-27 -30 -45 -46 0
-27 -30 -46 -47 0
-27 -30 -47 -48 0
-27 -30 -48 -49 0
-27 -30 -49 -50 0
-27 -31 -32 -44 0
-27 -31 -32 -46 0
-27 -31 -33 -45 0
-27 -31 -33 -49 0
-27 -31 -34 -36 0
-27 -31 -34 -46 0
-27 -31 -35 -39 0
-27 -31 -35 -47 0
-27 -31 -36 -42 0
-27 -31 -36 -48 0
-27 -31 -37 -45 0
-27 -31 -37 -49 0
-27 -31 -38 -48 0
-27 -31 -38 -50 0
-27 -32 -33 -34 0
-27 -32 -33 -48 0
-27 -32 -33 -50 0
-27 -32 -34 -49 0
-27 -32 -35 -36 0
-27 -32 -35 -50 0
-27 -32 -36 -39 0
-27 -32 -37 -42 0
-27 -32 -38 -45 0
-27 -32 -39 -48 0
-27 -33 -34 -36 0
-27 -33 -35 -37 0
-27 -33 -36 -38 0
-27 -33 -37 -39 0
-27 -33 -38 -40 0
-27 -33 -38 -42 0
-27 -33 -39 -41 0
-27 -33 -39 -45 0
-27 -33 -40 -42 0
-27 -33 -40 -48 0
-27 -33 -41 -43 0
-27 -33 -42 -44 0
-27 -33 -43 -45 0
-27 -33 -44 -46 0
-27 -33 -45 -47 0
-27 -33 -46 -48 0
-27 -33 -47 -49 0
-27 -33 -48 -50 0
-27 -34 -36 -37 0
-27 -34 -38 -39 0
-27 -34 -39 -42 0
-27 -34 -40 -45 0
-27 -34 -41 -48 0
-27 -35 -36 -38 0
-27 -35 -40 -42 0
-27 -35 -41 -45 0
-27 -35 -42 -48 0
-27 -36 -37 -40 0
-27 -36 -38 -41 0
-27 -36 -39 -40 0
-27 -36 -39 -42 0
-27 -36 -40 -43 0
-27 -36 -41 -42 0
-27 -36 -41 -44 0
-27 -36 -42 -45 0
-27 -36 -43 -46 0
-27 -36 -43 -48 0
-27 -36 -44 -47 0
-27 -36 -45 -48 0
-27 -36 -46 -49 0
-27 -36 -47 -50 0
-27 -37 -39 -41 0
-27 -37 -43 -45 0
-27 -37 -44 -48 0
-27 -38 -39 -42 0
-27 -38 -42 -43 0
-27 -38 -44 -45 0
-27 -38 -45 -48 0
-27 -39 -40 -44 0
-27 -39 -41 -45 0
-27 -39 -42 -44 0
-27 -39 -42 -46 0
-27 -39 -43 -47 0
-27 -39 -44 -48 0
-27 -39 -45 -49 0
-27 -39 -46 -48 0
-27 -39 -46 -50 0
-27 -40 -42 -45 0
-27 -40 -45 -46 0
-27 -40 -47 -48 0
-27 -41 -42 -46 0
-27 -41 -45 -47 0
-27 -42 -43 -48 0
-27 -42 -44 -49 0
-27 -42 -45 -48 0
-27 -42 -45 -50 0
-27 -42 -48 -49 0
-27 -43 -45 -49 0
-27 -43 -48 -50 0
-27 -44 -45 -50 0
-28 -29 -30 -31 0
-28 -29 -30 -33 0
-28 -29 -30 -35 0
-28 -29 -31 -34 0
-28 -29 -31 -38 0
-28 -29 -32 -35 0
-28 -29 -32 -37 0
-28 -29 -32 -41 0
-28 -29 -33 -36 0
-28 -29 -33 -40 0
-28 -29 -33 -44 0
-28 -29 -34 -37 0
-28 -29 -34 -43 0
-28 -29 -34 -47 0
-28 -29 -35 -38 0
-28 -29 -35 -46 0
-28 -29 -35 -50 0
-28 -29 -36 -39 0
-28 -29 -36 -49 0
-28 -29 -37 -40 0
-28 -29 -38 -41 0
-28 -29 -39 -42 0
-28 -29 -40 -43 0
-28 -29 -41 -44 0
-28 -29 -42 -45 0
-28 -29 -43 -46 0
-28 -29 -44 -47 0
-28 -29 -45 -48 0
-28 -29 -46 -49 0
-28 -29 -47 -50 0
-28 -30 -31 -37 0
-28 -30 -31 -39 0
-28 -30 -32 -34 0
-28 -30 -32 -38 0
-28 -30 -32 -42 0
-28 -30 -33 -37 0
-28 -30 -33 -39 0
-28 -30 -33 -45 0
-28 -30 -34 -40 0
-28 -30 -34 -48 0
-28 -30 -35 -41 0
-28 -30 -35 -43 0
-28 -30 -36 -42 0
-28 -30 -36 -46 0
-28 -30 -37 -43 0
-28 -30 -37 -49 0
-28 -30 -38 -44 0
-28 -30 -39 -45 0
-28 -30 -40 -46 0
-28 -30 -41 -47 0
-28 -30 -42 -48 0
-28 -30 -43 -49 0
-28 -30 -44 -50 0
-28 -31 -32 -33 0
-28 -31 -32 -41 0
-28 -31 -32 -43 0
-28 -31 -33 -34 0
-28 -31 -33 -42 0
-28 -31 -33 -46 0
-28 -31 -34 -35 0
-28 -31 -34 -37 0
-28 -31 -34 -43 0
-28 -31 -34 -49 0
-28 -31 -35 -36 0
-28 -31 -35 -40 0
-28 -31 -35 -44 0
-28 -31 -36 -37 0
-28 -31 -36 -43 0
-28 -31 -36 -45 0
-28 -31 -37 -38 0
-28 -31 -37 -46 0
-28 -31 -38 -39 0
-28 -31 -38 -47 0
-28 -31 -38 -49 0
-28 -31 -39 -40 0
-28 -31 -39 -48 0
-28 -31 -40 -41 0
-28 -31 -40 -49 0
-28 -31 -41 -42 0
-28 -31 -41 -50 0
-28 -31 -42 -43 0
-28 -31 -43 -44 0
-28 -31 -44 -45 0
-28 -31 -45 -46 0
-28 -31 -46 -47 0
-28 -31 -47 -48 0
-28 -31 -48 -49 0
-28 -31 -49 -50 0
-28 -32 -33 -45 0
-28 -32 -33 -47 0
-28 -32 -34 -46 0
-28 -32 -34 -50 0
-28 -32 -35 -37 0
-28 -32 -35 -47 0
-28 -32 -36 -40 0
-28 -32 -36 -48 0
-28 -32 -37 -43 0
-28 -32 -37 -49 0
-28 -32 -38 -46 0
-28 -32 -38 -50 0
-28 -32 -39 -49 0
-28 -33 -34 -35 0
-28 -33 -34 -49 0
-28 -33 -35 -50 0
-28 -33 -36 -37 0
-28 -33 -37 -40 0
-28 -33 -38 -43 0
-28 -33 -39 -46 0
-28 -33 -40 -49 0
-28 -34 -35 -37 0
-28 -34 -36 -38 0
-28 -34 -37 -39 0
-28 -34 -38 -40 0
-28 -34 -39 -41 0
-28 -34 -39 -43 0
-28 -34 -40 -42 0
-28 -34 -40 -46 0
-28 -34 -41 -43 0
-28 -34 -41 -49 0
-28 -34 -42 -44 0
-28 -34 -43 -45 0
-28 -34 -44 -46 0
-28 -34 -45 -47 0
-28 -34 -46 -48 0
-28 -34 -47 -49 0
-28 -34 -48 -50 0
-28 -35 -37 -38 0
-28 -35 -39 -40 0
-28 -35 -40 -43 0
-28 -35 -41 -46 0
-28 -35 -42 -49 0
-28 -36 -37 -39 0
-28 -36 -41 -43 0
-28 -36 -42 -46 0
-28 -36 -43 -49 0
-28 -37 -38 -41 0
-28 -37 -39 -42 0
-28 -37 -40 -41 0
-28 -37 -40 -43 0
-28 -37 -41 -44 0
-28 -37 -42 -43 0
-28 -37 -42 -45 0
-28 -37 -43 -46 0
-28 -37 -44 -47 0
-28 -37 -44 -49 0
-28 -37 -45 -48 0
-28 -37 -46 -49 0
-28 -37 -47 -50 0
-28 -38 -40 -42 0
-28 -38 -44 -46 0
-28 -38 -45 -49 0
-28 -39 -40 -43 0
-28 -39 -43 -44 0
-28 -39 -45 -46 0
-28 -39 -46 -49 0
-28 -40 -41 -45 0
-28 -40 -42 -46 0
-28 -40 -43 -45 0
-28 -40 -43 -47 0
-28 -40 -44 -48 0
-28 -40 -45 -49 0
-28 -40 -46 -50 0
-28 -40 -47 -49 0
-28 -41 -43 -46 0
-28 -41 -46 -47 0
-28 -41 -48 -49 0
-28 -42 -43 -47 0
-28 -42 -46 -48 0
-28 -43 -44 -49 0
-28 -43 -45 -50 0
-28 -43 -46 -49 0
-28 -43 -49 -50 0
-28 -44 -46 -50 0
-29 -30 -31 -32 0
-29 -30 -31 -34 0
-29 -30 -31 -36 0
-29 -30 -32 -35 0
-29 -30 -32 -39 0
-29 -30 -33 -36 0
-29 -30 -33 -38 0
-29 -30 -33 -42 0
-29 -30 -34 -37 0
-29 -30 -34 -41 0
-29 -30 -34 -45 0
-29 -30 -35 -38 0
-29 -30 -35 -44 0
-29 -30 -35 -48 0
-29 -30 -36 -39 0
-29 -30 -36 -47 0
-29 -30 -37 -40 0
-29 -30 -37 -50 0
-29 -30 -38 -41 0
-29 -30 -39 -42 0
-29 -30 -40 -43 0
-29 -30 -41 -44 0
-29 -30 -42 -45 0
-29 -30 -43 -46 0
-29 -30 -44 -47 0
-29 -30 -45 -48 0
-29 -30 -46 -49 0
-29 -30 -47 -50 0
-29 -31 -32 -38 0
-29 -31 -32 -40 0
-29 -31 -33 -35 0
-29 -31 -33 -39 0
-29 -31 -33 -43 0
-29 -31 -34 -38 0
-29 -31 -34 -40 0
-29 -31 -34 -46 0
-29 -31 -35 -41 0
-29 -31 -35 -49 0
-29 -31 -36 -42 0
-29 -31 -36 -44 0
-29 -31 -37 -43 0
-29 -31 -37 -47 0
-29 -31 -38 -44 0
-29 -31 -38 -50 0
-29 -31 -39 -45 0
-29 -31 -40 -46 0
-29 -31 -41 -47 0
-29 -31 -42 -48 0
-29 -31 -43 -49 0
-29 -31 -44 -50 0
-29 -32 -33 -34 0
-29 -32 -33 -42 0
-29 -32 -33 -44 0
-29 -32 -34 -35 0
-29 -32 -34 -43 0
-29 -32 -34 -47 0
-29 -32 -35 -36 0
-29 -32 -35 -38 0
-29 -32 -35 -44 0
-29 -32 -35 -50 0
-29 -32 -36 -37 0
-29 -32 -36 -41 0
-29 -32 -36 -45 0
-29 -32 -37 -38 0
-29 -32 -37 -44 0
-29 -32 -37 -46 0
-29 -32 -38 -39 0
-29 -32 -38 -47 0
-29 -32 -39 -40 0
-29 -32 -39 -48 0
-29 -32 -39 -50 0
-29 -32 -40 -41 0
-29 -32 -40 -49 0
-29 -32 -41 -42 0
-29 -32 -41 -50 0
-29 -32 -42 -43 0
-29 -32 -43 -44 0
-29 -32 -44 -45 0
-29 -32 -45 -46 0
-29 -32 -46 -47 0
-29 -32 -47 -48 0
-29 -32 -48 -49 0
-29 -32 -49 -50 0
-29 -33 -34 -46 0
-29 -33 -34 -48 0
-29 -33 -35 -47 0
-29 -33 -36 -38 0
-29 -33 -36 -48 0
-29 -33 -37 -41 0
-29 -33 -37 -49 0
-29 -33 -38 -44 0
-29 -33 -38 -50 0
-29 -33 -39 -47 0
-29 -33 -40 -50 0
-29 -34 -35 -36 0
-29 -34 -35 -50 0
-29 -34 -37 -38 0
-29 -34 -38 -41 0
-29 -34 -39 -44 0
-29 -34 -40 -47 0
-29 -34 -41 -50 0
-29 -35 -36 -38 0
-29 -35 -37 -39 0
-29 -35 -38 -40 0
-29 -35 -39 -41 0
-29 -35 -40 -42 0
-29 -35 -40 -44 0
-29 -35 -41 -43 0
-29 -35 -41 -47 0
-29 -35 -42 -44 0
-29 -35 -42 -50 0
-29 -35 -43 -45 0
-29 -35 -44 -46 0
-29 -35 -45 -47 0
-29 -35 -46 -48 0
-29 -35 -47 -49 0
-29 -35 -48 -50 0
-29 -36 -38 -39 0
-29 -36 -40 -41 0
-29 -36 -41 -44 0
-29 -36 -42 -47 0
-29 -36 -43 -50 0
-29 -37 -38 -40 0
-29 -37 -42 -44 0
-29 -37 -43 -47 0
-29 -37 -44 -50 0
-29 -38 -39 -42 0
-29 -38 -40 -43 0
-29 -38 -41 -42 0
-29 -38 -41 -44 0
-29 -38 -42 -45 0
-29 -38 -43 -44 0
-29 -38 -43 -46 0
-29 -38 -44 -47 0
-29 -38 -45 -48 0
-29 -38 -45 -50 0
-29 -38 -46 -49 0
-29 -38 -47 -50 0
-29 -39 -41 -43 0
-29 -39 -45 -47 0
-29 -39 -46 -50 0
-29 -40 -41 -44 0
-29 -40 -44 -45 0
-29 -40 -46 -47 0
-29 -40 -47 -50 0
-29 -41 -42 -46 0
-29 -41 -43 -47 0
-29 -41 -44 -46 0
-29 -41 -44 -48 0
-29 -41 -45 -49 0
-29 -41 -46 -50 0
-29 -41 -48 -50 0
-29 -42 -44 -47 0
-29 -42 -47 -48 0
-29 -42 -49 -50 0
-29 -43 -44 -48 0
-29 -43 -47 -49 0
-29 -44 -45 -50 0
-29 -44 -47 -50 0
-30 -31 -32 -33 0
-30 -31 -32 -35 0
-30 -31 -32 -37 0
-30 -31 -33 -36 0
-30 -31 -33 -40 0
-30 -31 -34 -37 0
-30 -31 -34 -39 0
-30 -31 -34 -43 0
-30 -31 -35 -38 0
-30 -31 -35 -42 0
-30 -31 -35 -46 0
-30 -31 -36 -39 0
-30 -31 -36 -45 0
-30 -31 -36 -49 0
-30 -31 -37 -40 0
-30 -31 -37 -48 0
-30 -31 -38 -41 0
-30 -31 -39 -42 0
-30 -31 -40 -43 0
-30 -31 -41 -44 0
-30 -31 -42 -45 0
-30 -31 -43 -46 0
-30 -31 -44 -47 0
-30 -31 -45 -48 0
-30 -31 -46 -49 0
-30 -31 -47 -50 0
-30 -32 -33 -39 0
-30 -32 -33 -41 0
-30 -32 -34 -36 0
-30 -32 -34 -40 0
-30 -32 -34 -44 0
-30 -32 -35 -39 0
-30 -32 -35 -41 0
-30 -32 -35 -47 0
-30 -32 -36 -42 0
-30 -32 -36 -50 0
-30 -32 -37 -43 0
-30 -32 -37 -45 0
-30 -32 -38 -44 0
-30 -32 -38 -48 0
-30 -32 -39 -45 0
-30 -32 -40 -46 0
-30 -32 -41 -47 0
-30 -32 -42 -48 0
-30 -32 -43 -49 0
-30 -32 -44 -50 0
-30 -33 -34 -35 0
-30 -33 -34 -43 0
-30 -33 -34 -45 0
-30 -33 -35 -36 0
-30 -33 -35 -44 0
-30 -33 -35 -48 0
-30 -33 -36 -37 0
-30 -33 -36 -39 0
-30 -33 -36 -45 0
-30 -33 -37 -38 0
-30 -33 -37 -42 0
-30 -33 -37 -46 0
-30 -33 -38 -39 0
-30 -33 -38 -45 0
-30 -33 -38 -47 0
-30 -33 -39 -40 0
-30 -33 -39 -48 0
-30 -33 -40 -41 0
-30 -33 -40 -49 0
-30 -33 -41 -42 0
-30 -33 -41 -50 0
-30 -33 -42 -43 0
-30 -33 -43 -44 0
-30 -33 -44 -45 0
-30 -33 -45 -46 0
-30 -33 -46 -47 0
-30 -33 -47 -48 0
-30 -33 -48 -49 0
-30 -33 -49 -50 0
-30 -34 -35 -47 0
-30 -34 -35 -49 0
-30 -34 -36 -48 0
-30 -34 -37 -39 0
-30 -34 -37 -49 0
-30 -34 -38 -42 0
-30 -34 -38 -50 0
-30 -34 -39 -45 0
-30 -34 -40 -48 0
-30 -35 -36 -37 0
-30 -35 -38 -39 0
-30 -35 -39 -42 0
-30 -35 -40 -45 0
-30 -35 -41 -48 0
-30 -36 -37 -39 0
-30 -36 -38 -40 0
-30 -36 -39 -41 0
-30 -36 -40 -42 0
-30 -36 -41 -43 0
-30 -36 -41 -45 0
-30 -36 -42 -44 0
-30 -36 -42 -48 0
-30 -36 -43 -45 0
-30 -36 -44 -46 0
-30 -36 -45 -47 0
-30 -36 -46 -48 0
-30 -36 -47 -49 0
-30 -36 -48 -50 0
-30 -37 -39 -40 0
-30 -37 -41 -42 0
-30 -37 -42 -45 0
-30 -37 -43 -48 0
-30 -38 -39 -41 0
-30 -38 -43 -45 0
-30 -38 -44 -48 0
-30 -39 -40 -43 0
-30 -39 -41 -44 0
-30 -39 -42 -43 0
-30 -39 -42 -45 0
-30 -39 -43 -46 0
-30 -39 -44 -45 0
-30 -39 -44 -47 0
-30 -39 -45 -48 0
-30 -39 -46 -49 0
-30 -39 -47 -50 0
-30 -40 -42 -44 0
-30 -40 -46 -48 0
-30 -41 -42 -45 0
-30 -41 -45 -46 0
-30 -41 -47 -48 0
-30 -42 -43 -47 0
-30 -42 -44 -48 0
-30 -42 -45 -47 0
-30 -42 -45 -49 0
-30 -42 -46 -50 0
-30 -43 -45 -48 0
-30 -43 -48 -49 0
-30 -44 -45 -49 0
-30 -44 -48 -50 0
-31 -32 -33 -34 0
-31 -32 -33 -36 0
-31 -32 -33 -38 0
-31 -32 -34 -37 0
-31 -32 -34 -41 0
-31 -32 -35 -38 0
-31 -32 -35 -40 0
-31 -32 -35 -44 0
-31 -32 -36 -39 0
-31 -32 -36 -43 0
-31 -32 -36 -47 0
-31 -32 -37 -40 0
-31 -32 -37 -46 0
-31 -32 -37 -50 0
-31 -32 -38 -41 0
-31 -32 -38 -49 0
-31 -32 -39 -42 0
-31 -32 -40 -43 0
-31 -32 -41 -44 0
-31 -32 -42 -45 0
-31 -32 -43 -46 0
-31 -32 -44 -47 0
-31 -32 -45 -48 0
-31 -32 -46 -49 0
-31 -32 -47 -50 0
-31 -33 -34 -40 0
-31 -33 -34 -42 0
-31 -33 -35 -37 0
-31 -33 -35 -41 0
-31 -33 -35 -45 0
-31 -33 -36 -40 0
-31 -33 -36 -42 0
-31 -33 -36 -48 0
-31 -33 -37 -43 0
-31 -33 -38 -44 0
-31 -33 -38 -46 0
-31 -33 -39 -45 0
-31 -33 -39 -49 0
-31 -33 -40 -46 0
-31 -33 -41 -47 0
-31 -33 -42 -48 0
-31 -33 -43 -49 0
-31 -33 -44 -50 0
-31 -34 -35 -36 0
-31 -34 -35 -44 0
-31 -34 -35 -46 0
-31 -34 -36 -37 0
-31 -34 -36 -45 0
-31 -34 -36 -49 0
-31 -34 -37 -38 0
-31 -34 -37 -40 0
-31 -34 -37 -46 0
-31 -34 -38 -39 0
-31 -34 -38 -43 0
-31 -34 -38 -47 0
-31 -34 -39 -40 0
-31 -34 -39 -46 0
-31 -34 -39 -48 0
-31 -34 -40 -41 0
-31 -34 -40 -49 0
-31 -34 -41 -42 0
-31 -34 -41 -50 0
-31 -34 -42 -43 0
-31 -34 -43 -44 0
-31 -34 -44 -45 0
-31 -34 -45 -46 0
-31 -34 -46 -47 0
-31 -34 -47 -48 0
-31 -34 -48 -49 0
-31 -34 -49 -50 0
-31 -35 -36 -48 0
-31 -35 -36 -50 0
-31 -35 -37 -49 0
-31 -35 -38 -40 0
-31 -35 -38 -50 0
-31 -35 -39 -43 0
-31 -35 -40 -46 0
-31 -35 -41 -49 0
-31 -36 -37 -38 0
-31 -36 -39 -40 0
-31 -36 -40 -43 0
-31 -36 -41 -46 0
-31 -36 -42 -49 0
-31 -37 -38 -40 0
-31 -37 -39 -41 0
-31 -37 -40 -42 0
-31 -37 -41 -43 0
-31 -37 -42 -44 0
-31 -37 -42 -46 0
-31 -37 -43 -45 0
-31 -37 -43 -49 0
-31 -37 -44 -46 0
-31 -37 -45 -47 0
-31 -37 -46 -48 0
-31 -37 -47 -49 0
-31 -37 -48 -50 0
-31 -38 -40 -41 0
-31 -38 -42 -43 0
-31 -38 -43 -46 0
-31 -38 -44 -49 0
-31 -39 -40 -42 0
-31 -39 -44 -46 0
-31 -39 -45 -49 0
-31 -40 -41 -44 0
-31 -40 -42 -45 0
-31 -40 -43 -44 0
-31 -40 -43 -46 0
-31 -40 -44 -47 0
-31 -40 -45 -46 0
-31 -40 -45 -48 0
-31 -40 -46 -49 0
-31 -40 -47 -50 0
-31 -41 -43 -45 0
-31 -41 -47 -49 0
-31 -42 -43 -46 0
-31 -42 -46 -47 0
-31 -42 -48 -49 0
-31 -43 -44 -48 0
-31 -43 -45 -49 0
-31 -43 -46 -48 0
-31 -43 -46 -50 0
-31 -44 -46 -49 0
-31 -44 -49 -50 0
-31 -45 -46 -50 0
-32 -33 -34 -35 0
-32 -33 -34 -37 0
-32 -33 -34 -39 0
-32 -33 -35 -38 0
-32 -33 -35 -42 0
-32 -33 -36 -39 0
-32 -33 -36 -41 0
-32 -33 -36 -45 0
-32 -33 -37 -40 0
-32 -33 -37 -44 0
-32 -33 -37 -48 0
-32 -33 -38 -41 0
-32 -33 -38 -47 0
-32 -33 -39 -42 0
-32 -33 -39 -50 0
-32 -33 -40 -43 0
-32 -33 -41 -44 0
-32 -33 -42 -45 0
-32 -33 -43 -46 0
-32 -33 -44 -47 0
-32 -33 -45 -48 0
-32 -33 -46 -49 0
-32 -33 -47 -50 0
-32 -34 -35 -41 0
-32 -34 -35 -43 0
-32 -34 -36 -38 0
-32 -34 -36 -42 0
-32 -34 -36 -46 0
-32 -34 -37 -41 0
-32 -34 -37 -43 0
-32 -34 -37 -49 0
-32 -34 -38 -44 0
-32 -34 -39 -45 0
-32 -34 -39 -47 0
-32 -34 -40 -46 0
-32 -34 -40 -50 0
-32 -34 -41 -47 0
-32 -34 -42 -48 0
-32 -34 -43 -49 0
-32 -34 -44 -50 0
-32 -35 -36 -37 0
-32 -35 -36 -45 0
-32 -35 -36 -47 0
-32 -35 -37 -38 0
-32 -35 -37 -46 0
-32 -35 -37 -50 0
-32 -35 -38 -39 0
-32 -35 -38 -41 0
-32 -35 -38 -47 0
-32 -35 -39 -40 0
-32 -35 -39 -44 0
-32 -35 -39 -48 0
-32 -35 -40 -41 0
-32 -35 -40 -47 0
-32 -35 -40 -49 0
-32 -35 -41 -42 0
-32 -35 -41 -50 0
-32 -35 -42 -43 0
-32 -35 -43 -44 0
-32 -35 -44 -45 0
-32 -35 -45 -46 0
-32 -35 -46 -47 0
-32 -35 -47 -48 0
-32 -35 -48 -49 0
-32 -35 -49 -50 0
-32 -36 -37 -49 0
-32 -36 -38 -50 0
-32 -36 -39 -41 0
-32 -36 -40 -44 0
-32 -36 -41 -47 0
-32 -36 -42 -50 0
-32 -37 -38 -39 0
-32 -37 -40 -41 0
-32 -37 -41 -44 0
-32 -37 -42 -47 0
-32 -37 -43 -50 0
-32 -38 -39 -41 0
-32 -38 -40 -42 0
-32 -38 -41 -43 0
-32 -38 -42 -44 0
-32 -38 -43 -45 0
-32 -38 -43 -47 0
-32 -38 -44 -46 0
-32 -38 -44 -50 0
-32 -38 -45 -47 0
-32 -38 -46 -48 0
-32 -38 -47 -49 0
-32 -38 -48 -50 0
-32 -39 -41 -42 0
-32 -39 -43 -44 0
-32 -39 -44 -47 0
-32 -39 -45 -50 0
-32 -40 -41 -43 0
-32 -40 -45 -47 0
-32 -40 -46 -50 0
-32 -41 -42 -45 0
-32 -41 -43 -46 0
-32 -41 -44 -45 0
-32 -41 -44 -47 0
-32 -41 -45 -48 0
-32 -41 -46 -47 0
-32 -41 -46 -49 0
-32 -41 -47 -50 0
-32 -42 -44 -46 0
-32 -42 -48 -50 0
-32 -43 -44 -47 0
-32 -43 -47 -48 0
-32 -43 -49 -50 0
-32 -44 -45 -49 0
-32 -44 -46 -50 0
-32 -44 -47 -49 0
-32 -45 -47 -50 0
-33 -34 -35 -36 0
-33 -34 -35 -38 0
-33 -34 -35 -40 0
-33 -34 -36 -39 0
-33 -34 -36 -43 0
-33 -34 -37 -40 0
-33 -34 -37 -42 0
-33 -34 -37 -46 0
-33 -34 -38 -41 0
-33 -34 -38 -45 0
-33 -34 -38 -49 0
-33 -34 -39 -42 0
-33 -34 -39 -48 0
-33 -34 -40 -43 0
-33 -34 -41 -44 0
-33 -34 -42 -45 0
-33 -34 -43 -46 0
-33 -34 -44 -47 0
-33 -34 -45 -48 0
-33 -34 -46 -49 0
-33 -34 -47 -50 0
-33 -35 -36 -42 0
-33 -35 -36 -44 0
-33 -35 -37 -39 0
-33 -35 -37 -43 0
-33 -35 -37 -47 0
-33 -35 -38 -42 0
-33 -35 -38 -44 0
-33 -35 -38 -50 0
-33 -35 -39 -45 0
-33 -35 -40 -46 0
-33 -35 -40 -48 0
-33 -35 -41 -47 0
-33 -35 -42 -48 0
-33 -35 -43 -49 0
-33 -35 -44 -50 0
-33 -36 -37 -38 0
-33 -36 -37 -46 0
-33 -36 -37 -48 0
-33 -36 -38 -39 0
-33 -36 -38 -47 0
-33 -36 -39 -40 0
-33 -36 -39 -42 0
-33 -36 -39 -48 0
-33 -36 -40 -41 0
-33 -36 -40 -45 0
-33 -36 -40 -49 0
-33 -36 -41 -42 0
-33 -36 -41 -48 0
-33 -36 -41 -50 0
-33 -36 -42 -43 0
-33 -36 -43 -44 0
-33 -36 -44 -45 0
-33 -36 -45 -46 0
-33 -36 -46 -47 0
-33 -36 -47 -48 0
-33 -36 -48 -49 0
-33 -36 -49 -50 0
-33 -37 -38 -50 0
-33 -37 -40 -42 0
-33 -37 -41 -45 0
-33 -37 -42 -48 0
-33 -38 -39 -40 0
-33 -38 -41 -42 0
-33 -38 -42 -45 0
-33 -38 -43 -48 0
-33 -39 -40 -42 0
-33 -39 -41 -43 0
-33 -39 -42 -44 0
-33 -39 -43 -45 0
-33 -39 -44 -46 0
-33 -39 -44 -48 0
-33 -39 -45 -47 0
-33 -39 -46 -48 0
-33 -39 -47 -49 0
-33 -39 -48 -50 0
-33 -40 -42 -43 0
-33 -40 -44 -45 0
-33 -40 -45 -48 0
-33 -41 -42 -44 0
-33 -41 -46 -48 0
-33 -42 -43 -46 0
-33 -42 -44 -47 0
-33 -42 -45 -46 0
-33 -42 -45 -48 0
-33 -42 -46 -49 0
-33 -42 -47 -48 0
-33 -42 -47 -50 0
-33 -43 -45 -47 0
-33 -44 -45 -48 0
-33 -44 -48 -49 0
-33 -45 -46 -50 0
-33 -45 -48 -50 0
-34 -35 -36 -37 0
-34 -35 -36 -39 0
-34 -35 -36 -41 0
-34 -35 -37 -40 0
-34 -35 -37 -44 0
-34 -35 -38 -41 0
-34 -35 -38 -43 0
-34 -35 -38 -47 0
-34 -35 -39 -42 0
-34 -35 -39 -46 0
-34 -35 -39 -50 0
-34 -35 -40 -43 0
-34 -35 -40 -49 0
-34 -35 -41 -44 0
-34 -35 -42 -45 0
-34 -35 -43 -46 0
-34 -35 -44 -47 0
-34 -35 -45 -48 0
-34 -35 -46 -49 0
-34 -35 -47 -50 0
-34 -36 -37 -43 0
-34 -36 -37 -45 0
-34 -36 -38 -40 0
-34 -36 -38 -44 0
-34 -36 -38 -48 0
-34 -36 -39 -43 0
-34 -36 -39 -45 0
-34 -36 -40 -46 0
-34 -36 -41 -47 0
-34 -36 -41 -49 0
-34 -36 -42 -48 0
-34 -36 -43 -49 0
-34 -36 -44 -50 0
-34 -37 -38 -39 0
-34 -37 -38 -47 0
-34 -37 -38 -49 0
-34 -37 -39 -40 0
-34 -37 -39 -48 0
-34 -37 -40 -41 0
-34 -37 -40 -43 0
-34 -37 -40 -49 0
-34 -37 -41 -42 0
-34 -37 -41 -46 0
-34 -37 -41 -50 0
-34 -37 -42 -43 0
-34 -37 -42 -49 0
-34 -37 -43 -44 0
-34 -37 -44 -45 0
-34 -37 -45 -46 0
-34 -37 -46 -47 0
-34 -37 -47 -48 0
-34 -37 -48 -49 0
-34 -37 -49 -50 0
-34 -38 -41 -43 0
-34 -38 -42 -46 0
-34 -38 -43 -49 0
-34 -39 -40 -41 0
-34 -39 -42 -43 0
-34 -39 -43 -46 0
-34 -39 -44 -49 0
-34 -40 -41 -43 0
-34 -40 -42 -44 0
-34 -40 -43 -45 0
-34 -40 -44 -46 0
-34 -40 -45 -47 0
-34 -40 -45 -49 0
-34 -40 -46 -48 0
-34 -40 -47 -49 0
-34 -40 -48 -50 0
-34 -41 -43 -44 0
-34 -41 -45 -46 0
-34 -41 -46 -49 0
-34 -42 -43 -45 0
-34 -42 -47 -49 0
-34 -43 -44 -47 0
-34 -43 -45 -48 0
-34 -43 -46 -47 0
-34 -43 -46 -49 0
-34 -43 -47 -50 0
-34 -43 -48 -49 0
-34 -44 -46 -48 0
-34 -45 -46 -49 0
-34 -45 -49 -50 0
-35 -36 -37 -38 0
-35 -36 -37 -40 0
-35 -36 -37 -42 0
-35 -36 -38 -41 0
-35 -36 -38 -45 0
-35 -36 -39 -42 0
-35 -36 -39 -44 0
-35 -36 -39 -48 0
-35 -36 -40 -43 0
-35 -36 -40 -47 0
-35 -36 -41 -44 0
-35 -36 -41 -50 0
-35 -36 -42 -45 0
-35 -36 -43 -46 0
-35 -36 -44 -47 0
-35 -36 -45 -48 0
-35 -36 -46 -49 0
-35 -36 -47 -50 0
-35 -37 -38 -44 0
-35 -37 -38 -46 0
-35 -37 -39 -41 0
-35 -37 -39 -45 0
-35 -37 -39 -49 0
-35 -37 -40 -44 0
-35 -37 -40 -46 0
-35 -37 -41 -47 0
-35 -37 -42 -48 0
-35 -37 -42 -50 0
-35 -37 -43 -49 0
-35 -37 -44 -50 0
-35 -38 -39 -40 0
-35 -38 -39 -48 0
-35 -38 -39 -50 0
-35 -38 -40 -41 0
-35 -38 -40 -49 0
-35 -38 -41 -42 0
-35 -38 -41 -44 0
-35 -38 -41 -50 0
-35 -38 -42 -43 0
-35 -38 -42 -47 0
-35 -38 -43 -44 0
-35 -38 -43 -50 0
-35 -38 -44 -45 0
-35 -38 -45 -46 0
-35 -38 -46 -47 0
-35 -38 -47 -48 0
-35 -38 -48 -49 0
-35 -38 -49 -50 0
-35 -39 -42 -44 0
-35 -39 -43 -47 0
-35 -39 -44 -50 0
-35 -40 -41 -42 0
-35 -40 -43 -44 0
-35 -40 -44 -47 0
-35 -40 -45 -50 0
-35 -41 -42 -44 0
-35 -41 -43 -45 0
-35 -41 -44 -46 0
-35 -41 -45 -47 0
-35 -41 -46 -48 0
-35 -41 -46 -50 0
-35 -41 -47 -49 0
-35 -41 -48 -50 0
-35 -42 -44 -45 0
-35 -42 -46 -47 0
-35 -42 -47 -50 0
-35 -43 -44 -46 0
-35 -43 -48 -50 0
-35 -44 -45 -48 0
-35 -44 -46 -49 0
-35 -44 -47 -48 0
-35 -44 -47 -50 0
-35 -44 -49 -50 0
-35 -45 -47 -49 0
-35 -46 -47 -50 0
-36 -37 -38 -39 0
-36 -37 -38 -41 0
-36 -37 -38 -43 0
-36 -37 -39 -42 0
-36 -37 -39 -46 0
-36 -37 -40 -43 0
-36 -37 -40 -45 0
-36 -37 -40 -49 0
-36 -37 -41 -44 0
-36 -37 -41 -48 0
-36 -37 -42 -45 0
-36 -37 -43 -46 0
-36 -37 -44 -47 0
-36 -37 -45 -48 0
-36 -37 -46 -49 0
-36 -37 -47 -50 0
-36 -38 -39 -45 0
-36 -38 -39 -47 0
-36 -38 -40 -42 0
-36 -38 -40 -46 0
-36 -38 -40 -50 0
-36 -38 -41 -45 0
-36 -38 -41 -47 0
-36 -38 -42 -48 0
-36 -38 -43 -49 0
-36 -38 -44 -50 0
-36 -39 -40 -41 0
-36 -39 -40 -49 0
-36 -39 -41 -42 0
-36 -39 -41 -50 0
-36 -39 -42 -43 0
-36 -39 -42 -45 0
-36 -39 -43 -44 0
-36 -39 -43 -48 0
-36 -39 -44 -45 0
-36 -39 -45 -46 0
-36 -39 -46 -47 0
-36 -39 -47 -48 0
-36 -39 -48 -49 0
-36 -39 -49 -50 0
-36 -40 -43 -45 0
-36 -40 -44 -48 0
-36 -41 -42 -43 0
-36 -41 -44 -45 0
-36 -41 -45 -48 0
-36 -42 -43 -45 0
-36 -42 -44 -46 0
-36 -42 -45 -47 0
-36 -42 -46 -48 0
-36 -42 -47 -49 0
-36 -42 -48 -50 0
-36 -43 -45 -46 0
-36 -43 -47 -48 0
-36 -44 -45 -47 0
-36 -45 -46 -49 0
-36 -45 -47 -50 0
-36 -45 -48 -49 0
-36 -46 -48 -50 0
-37 -38 -39 -40 0
-37 -38 -39 -42 0
-37 -38 -39 -44 0
-37 -38 -40 -43 0
-37 -38 -40 -47 0
-37 -38 -41 -44 0
-37 -38 -41 -46 0
-37 -38 -41 -50 0
-37 -38 -42 -45 0
-37 -38 -42 -49 0
-37 -38 -43 -46 0
-37 -38 -44 -47 0
-37 -38 -45 -48 0
-37 -38 -46 -49 0
-37 -38 -47 -50 0
-37 -39 -40 -46 0
-37 -39 -40 -48 0
-37 -39 -41 -43 0
-37 -39 -41 -47 0
-37 -39 -42 -46 0
-37 -39 -42 -48 0
-37 -39 -43 -49 0
-37 -39 -44 -50 0
-37 -40 -41 -42 0
-37 -40 -41 -50 0
-37 -40 -42 -43 0
-37 -40 -43 -44 0
-37 -40 -43 -46 0
-37 -40 -44 -45 0
-37 -40 -44 -49 0
-37 -40 -45 -46 0
-37 -40 -46 -47 0
-37 -40 -47 -48 0
-37 -40 -48 -49 0
-37 -40 -49 -50 0
-37 -41 -44 -46 0
-37 -41 -45 -49 0
-37 -42 -43 -44 0
-37 -42 -45 -46 0
-37 -42 -46 -49 0
-37 -43 -44 -46 0
-37 -43 -45 -47 0
-37 -43 -46 -48 0
-37 -43 -47 -49 0
-37 -43 -48 -50 0
-37 -44 -46 -47 0
-37 -44 -48 -49 0
-37 -45 -46 -48 0
-37 -46 -47 -50 0
-37 -46 -49 -50 0
-38 -39 -40 -41 0
-38 -39 -40 -43 0
-38 -39 -40 -45 0
-38 -39 -41 -44 0
-38 -39 -41 -48 0
-38 -39 -42 -45 0
-38 -39 -42 -47 0
-38 -39 -43 -46 0
-38 -39 -43 -50 0
-38 -39 -44 -47 0
-38 -39 -45 -48 0
-38 -39 -46 -49 0
-38 -39 -47 -50 0
-38 -40 -41 -47 0
-38 -40 -41 -49 0
-38 -40 -42 -44 0
-38 -40 -42 -48 0
-38 -40 -43 -47 0
-38 -40 -43 -49 0
-38 -40 -44 -50 0
-38 -41 -42 -43 0
-38 -41 -43 -44 0
-38 -41 -44 -45 0
-38 -41 -44 -47 0
-38 -41 -45 -46 0
-38 -41 -45 -50 0
-38 -41 -46 -47 0
-38 -41 -47 -48 0
-38 -41 -48 -49 0
-38 -41 -49 -50 0
-38 -42 -45 -47 0
-38 -42 -46 -50 0
-38 -43 -44 -45 0
-38 -43 -46 -47 0
-38 -43 -47 -50 0
-38 -44 -45 -47 0
-38 -44 -46 -48 0
-38 -44 -47 -49 0
-38 -44 -48 -50 0
-38 -45 -47 -48 0
-38 -45 -49 -50 0
-38 -46 -47 -49 0
-39 -40 -41 -42 0
-39 -40 -41 -44 0
-39 -40 -41 -46 0
-39 -40 -42 -45 0
-39 -40 -42 -49 0
-39 -40 -43 -46 0
-39 -40 -43 -48 0
-39 -40 -44 -47 0
-39 -40 -45 -48 0
-39 -40 -46 -49 0
-39 -40 -47 -50 0
-39 -41 -42 -48 0
-39 -41 -42 -50 0
-39 -41 -43 -45 0
-39 -41 -43 -49 0
-39 -41 -44 -48 0
-39 -41 -44 -50 0
-39 -42 -43 -44 0
-39 -42 -44 -45 0
-39 -42 -45 -46 0
-39 -42 -45 -48 0
-39 -42 -46 -47 0
-39 -42 -47 -48 0
-39 -42 -48 -49 0
-39 -42 -49 -50 0
-39 -43 -46 -48 0
-39 -44 -45 -46 0
-39 -44 -47 -48 0
-39 -45 -46 -48 0
-39 -45 -47 -49 0
-39 -45 -48 -50 0
-39 -46 -48 -49 0
-39 -47 -48 -50 0
-40 -41 -42 -43 0
-40 -41 -42 -45 0
-40 -41 -42 -47 0
-40 -41 -43 -46 0
-40 -41 -43 -50 0
-40 -41 -44 -47 0
-40 -41 -44 -49 0
-40 -41 -45 -48 0
-40 -41 -46 -49 0
-40 -41 -47 -50 0
-40 -42 -43 -49 0
-40 -42 -44 -46 0
-40 -42 -44 -50 0
-40 -42 -45 -49 0
-40 -43 -44 -45 0
-40 -43 -45 -46 0
-40 -43 -46 -47 0
-40 -43 -46 -49 0
-40 -43 -47 -48 0
-40 -43 -48 -49 0
-40 -43 -49 -50 0
-40 -44 -47 -49 0
-40 -45 -46 -47 0
-40 -45 -48 -49 0
-40 -46 -47 -49 0
-40 -46 -48 -50 0
-40 -47 -49 -50 0
-41 -42 -43 -44 0
-41 -42 -43 -46 0
-41 -42 -43 -48 0
-41 -42 -44 -47 0
-41 -42 -45 -48 0
-41 -42 -45 -50 0
-41 -42 -46 -49 0
-41 -42 -47 -50 0
-41 -43 -44 -50 0
-41 -43 -45 -47 0
-41 -43 -46 -50 0
-41 -44 -45 -46 0
-41 -44 -46 -47 0
-41 -44 -47 -48 0
-41 -44 -47 -50 0
-41 -44 -48 -49 0
-41 -44 -49 -50 0
-41 -45 -48 -50 0
-41 -46 -47 -48 0
-41 -46 -49 -50 0
-41 -47 -48 -50 0
-42 -43 -44 -45 0
-42 -43 -44 -47 0
-42 -43 -44 -49 0
-42 -43 -45 -48 0
-42 -43 -46 -49 0
-42 -43 -47 -50 0
-42 -44 -46 -48 0
-42 -45 -46 -47 0
-42 -45 -47 -48 0
-42 -45 -48 -49 0
-42 -45 -49 -50 0
-42 -47 -48 -49 0
-43 -44 -45 -46 0
-43 -44 -45 -48 0
-43 -44 -45 -50 0
-43 -44 -46 -49 0
-43 -44 -47 -50 0
-43 -45 -47 -49 0
-43 -46 -47 -48 0
-43 -46 -48 -49 0
-43 -46 -49 -50 0
-43 -48 -49 -50 0
-44 -45 -46 -47 0
-44 -45 -46 -49 0
-44 -45 -47 -50 0
-44 -46 -48 -50 0
-44 -47 -48 -49 0
-44 -47 -49 -50 0
-45 -46 -47 -48 0
-45 -46 -47 -50 0
-45 -48 -49 -50 0
-46 -47 -48 -49 0
-47 -48 -49 -50 0
-126 51 0
-127 52 0
-128 53 0
-129 54 0
-130 55 0
-131 56 0
-132 57 0
-133 58 0
-134 59 0
-135 60 0
-136 61 0
-137 62 0
-138 63 0
-139 64 0
-140 65 0
-141 66 0
-142 67 0
-143 68 0
-144 69 0
-145 70 0
-146 71 0
-147 72 0
-148 73 0
-149 74 0
-150 75 0
-101 51 0
-102 52 0
-103 53 0
-104 54 0
-105 55 0
-106 56 0
-107 57 0
-108 58 0
-109 59 0
-110 60 0
-111 61 0
-112 62 0
-113 63 0
-114 64 0
-115 65 0
-116 66 0
-117 67 0
-118 68 0
-119 69 0
-120 70 0
-121 71 0
-122 72 0
-123 73 0
-124 74 0
-125 75 0
-101 -126 52 0
-101 -127 53 0
-101 -128 54 0
-101 -129 55 0
-101 -130 56 0
-101 -131 57 0
-101 -132 58 0
-101 -133 59 0
-101 -134 60 0
-101 -135 61 0
-101 -136 62 0
-101 -137 63 0
-101 -138 64 0
-101 -139 65 0
-101 -140 66 0
-101 -141 67 0
-101 -142 68 0
-101 -143 69 0
-101 -144 70 0
-101 -145 71 0
-101 -146 72 0
-101 -147 73 0
-101 -148 74 0
-101 -149 75 0
-101 -150 76 0
-102 -126 53 0
-102 -127 54 0
-102 -128 55 0
-102 -129 56 0
-102 -130 57 0
-102 -131 58 0
-102 -132 59 0
-102 -133 60 0
-102 -134 61 0
-102 -135 62 0
-102 -136 63 0
-102 -137 64 0
-102 -138 65 0
-102 -139 66 0
-102 -140 67 0
-102 -141 68 0
-102 -142 69 0
-102 -143 70 0
-102 -144 71 0
-102 -145 72 0
-102 -146 73 0
-102 -147 74 0
-102 -148 75 0
-102 -149 76 0
-102 -150 77 0
-103 -126 54 0
-103 -127 55 0
-103 -128 56 0
-103 -129 57 0
-103 -130 58 0
-103 -131 59 0
-103 -132 60 0
-103 -133 61 0
-103 -134 62 0
-103 -135 63 0
-103 -136 64 0
-103 -137 65 0
-103 -138 66 0
-103 -139 67 0
-103 -140 68 0
-103 -141 69 0
-103 -142 70 0
-103 -143 71 0
-103 -144 72 0
-103 -145 73 0
-103 -146 74 0
-103 -147 75 0
-103 -148 76 0
-103 -149 77 0
-103 -150 78 0
-104 -126 55 0
-104 -127 56 0
-104 -128 57 0
-104 -129 58 0
-104 -130 59 0
-104 -131 60 0
-104 -132 61 0
-104 -133 62 0
-104 -134 63 0
-104 -135 64 0
-104 -136 65 0
-104 -137 66 0
-104 -138 67 0
-104 -139 68 0
-104 -140 69 0
-104 -141 70 0
-104 -142 71 0
-104 -143 72 0
-104 -144 73 0
-104 -145 74 0
-104 -146 75 0
-104 -147 76 0
-104 -148 77 0
-104 -149 78 0
-104 -150 79 0
-105 -126 56 0
-105 -127 57 0
-105 -128 58 0
-105 -129 59 0
-105 -130 60 0
-105 -131 61 0
-105 -132 62 0
-105 -133 63 0
-105 -134 64 0
-105 -135 65 0
-105 -136 66 0
-105 -137 67 0
-105 -138 68 0
-105 -139 69 0
-105 -140 70 0
-105 -141 71 0
-105 -142 72 0
-105 -143 73 0
-105 -144 74 0
-105 -145 75 0
-105 -146 76 0
-105 -147 77 0
-105 -148 78 0
-105 -149 79 0
-105 -150 80 0
-106 -126 57 0
-106 -127 58 0
-106 -128 59 0
-106 -129 60 0
-106 -130 61 0
-106 -131 62 0
-106 -132 63 0
-106 -133 64 0
-106 -134 65 0
-106 -135 66 0
-106 -136 67 0
-106 -137 68 0
-106 -138 69 0
-106 -139 70 0
-106 -140 71 0
-106 -141 72 0
-106 -142 73 0
-106 -143 74 0
-106 -144 75 0
-106 -145 76 0
-106 -146 77 0
-106 -147 78 0
-106 -148 79 0
-106 -149 80 0
-106 -150 81 0
-107 -126 58 0
-107 -127 59 0
-107 -128 60 0
-107 -129 61 0
-107 -130 62 0
-107 -131 63 0
-107 -132 64 0
-107 -133 65 0
-107 -134 66 0
-107 -135 67 0
-107 -136 68 0
-107 -137 69 0
-107 -138 70 0
-107 -139 71 0
-107 -140 72 0
-107 -141 73 0
-107 -142 74 0
-107 -143 75 0
-107 -144 76 0
-107 -145 77 0
-107 -146 78 0
-107 -147 79 0
-107 -148 80 0
-107 -149 81 0
-107 -150 82 0
-108 -126 59 0
-108 -127 60 0
-108 -128 61 0
-108 -129 62 0
-108 -130 63 0
-108 -131 64 0
-108 -132 65 0
-108 -133 66 0
-108 -134 67 0
-108 -135 68 0
-108 -136 69 0
-108 -137 70 0
-108 -138 71 0
-108 -139 72 0
-108 -140 73 0
-108 -141 74 0
-108 -142 75 0
-108 -143 76 0
-108 -144 77 0
-108 -145 78 0
-108 -146 79 0
-108 -147 80 0
-108 -148 81 0
-108 -149 82 0
-108 -150 83 0
-109 -126 60 0
-109 -127 61 0
-109 -128 62 0
-109 -129 63 0
-109 -130 64 0
-109 -131 65 0
-109 -132 66 0
-109 -133 67 0
-109 -134 68 0
-109 -135 69 0
-109 -136 70 0
-109 -137 71 0
-109 -138 72 0
-109 -139 73 0
-109 -140 74 0
-109 -141 75 0
-109 -142 76 0
-109 -143 77 0
-109 -144 78 0
-109 -145 79 0
-109 -146 80 0
-109 -147 81 0
-109 -148 82 0
-109 -149 83 0
-109 -150 84 0
-110 -126 61 0
-110 -127 62 0
-110 -128 63 0
-110 -129 64 0
-110 -130 65 0
-110 -131 66 0
-110 -132 67 0
-110 -133 68 0
-110 -134 69 0
-110 -135 70 0
-110 -136 71 0
-110 -137 72 0
-110 -138 73 0
-110 -139 74 0
-110 -140 75 0
-110 -141 76 0
-110 -142 77 0
-110 -143 78 0
-110 -144 79 0
-110 -145 80 0
-110 -146 81 0
-110 -147 82 0
-110 -148 83 0
-110 -149 84 0
-110 -150 85 0
-111 -126 62 0
-111 -127 63 0
-111 -128 64 0
-111 -129 65 0
-111 -130 66 0
-111 -131 67 0
-111 -132 68 0
-111 -133 69 0
-111 -134 70 0
-111 -135 71 0
-111 -136 72 0
-111 -137 73 0
-111 -138 74 0
-111 -139 75 0
-111 -140 76 0
-111 -141 77 0
-111 -142 78 0
-111 -143 79 0
-111 -144 80 0
-111 -145 81 0
-111 -146 82 0
-111 -147 83 0
-111 -148 84 0
-111 -149 85 0
-111 -150 86 0
-112 -126 63 0
-112 -127 64 0
-112 -128 65 0
-112 -129 66 0
-112 -130 67 0
-112 -131 68 0
-112 -132 69 0
-112 -133 70 0
-112 -134 71 0
-112 -135 72 0
-112 -136 73 0
-112 -137 74 0
-112 -138 75 0
-112 -139 76 0
-112 -140 77 0
-112 -141 78 0
-112 -142 79 0
-112 -143 80 0
-112 -144 81 0
-112 -145 82 0
-112 -146 83 0
-112 -147 84 0
-112 -148 85 0
-112 -149 86 0
-112 -150 87 0
-113 -126 64 0
-113 -127 65 0
-113 -128 66 0
-113 -129 67 0
-113 -130 68 0
-113 -131 69 0
-113 -132 70 0
-113 -133 71 0
-113 -134 72 0
-113 -135 73 0
-113 -136 74 0
-113 -137 75 0
-113 -138 76 0
-113 -139 77 0
-113 -140 78 0
-113 -141 79 0
-113 -142 80 0
-113 -143 81 0
-113 -144 82 0
-113 -145 83 0
-113 -146 84 0
-113 -147 85 0
-113 -148 86 0
-113 -149 87 0
-113 -150 88 0
-114 -126 65 0
-114 -127 66 0
-114 -128 67 0
-114 -129 68 0
-114 -130 69 0
-114 -131 70 0
-114 -132 71 0
-114 -133 72 0
-114 -134 73 0
-114 -135 74 0
-114 -136 75 0
-114 -137 76 0
-114 -138 77 0
-114 -139 78 0
-114 -140 79 0
-114 -141 80 0
-114 -142 81 0
-114 -143 82 0
-114 -144 83 0
-114 -145 84 0
-114 -146 85 0
-114 -147 86 0
-114 -148 87 0
-114 -149 88 0
-114 -150 89 0
-115 -126 66 0
-115 -127 67 0
-115 -128 68 0
-115 -129 69 0
-115 -130 70 0
-115 -131 71 0
-115 -132 72 0
-115 -133 73 0
-115 -134 74 0
-115 -135 75 0
-115 -136 76 0
-115 -137 77 0
-115 -138 78 0
-115 -139 79 0
-115 -140 80 0
-115 -141 81 0
-115 -142 82 0
-115 -143 83 0
-115 -144 84 0
-115 -145 85 0
-115 -146 86 0
-115 -147 87 0
-115 -148 88 0
-115 -149 89 0
-115 -150 90 0
-116 -126 67 0
-116 -127 68 0
-116 -128 69 0
-116 -129 70 0
-116 -130 71 0
-116 -131 72 0
-116 -132 73 0
-116 -133 74 0
-116 -134 75 0
-116 -135 76 0
-116 -136 77 0
-116 -137 78 0
-116 -138 79 0
-116 -139 80 0
-116 -140 81 0
-116 -141 82 0
-116 -142 83 0
-116 -143 84 0
-116 -144 85 0
-116 -145 86 0
-116 -146 87 0
-116 -147 88 0
-116 -148 89 0
-116 -149 90 0
-116 -150 91 0
-117 -126 68 0
-117 -127 69 0
-117 -128 70 0
-117 -129 71 0
-117 -130 72 0
-117 -131 73 0
-117 -132 74 0
-117 -133 75 0
-117 -134 76 0
-117 -135 77 0
-117 -136 78 0
-117 -137 79 0
-117 -138 80 0
-117 -139 81 0
-117 -140 82 0
-117 -141 83 0
-117 -142 84 0
-117 -143 85 0
-117 -144 86 0
-117 -145 87 0
-117 -146 88 0
-117 -147 89 0
-117 -148 90 0
-117 -149 91 0
-117 -150 92 0
-118 -126 69 0
-118 -127 70 0
-118 -128 71 0
-118 -129 72 0
-118 -130 73 0
-118 -131 74 0
-118 -132 75 0
-118 -133 76 0
-118 -134 77 0
-118 -135 78 0
-118 -136 79 0
-118 -137 80 0
-118 -138 81 0
-118 -139 82 0
-118 -140 83 0
-118 -141 84 0
-118 -142 85 0
-118 -143 86 0
-118 -144 87 0
-118 -145 88 0
-118 -146 89 0
-118 -147 90 0
-118 -148 91 0
-118 -149 92 0
-118 -150 93 0
-119 -126 70 0
-119 -127 71 0
-119 -128 72 0
-119 -129 73 0
-119 -130 74 0
-119 -131 75 0
-119 -132 76 0
-119 -133 77 0
-119 -134 78 0
-119 -135 79 0
-119 -136 80 0
-119 -137 81 0
-119 -138 82 0
-119 -139 83 0
-119 -140 84 0
-119 -141 85 0
-119 -142 86 0
-119 -143 87 0
-119 -144 88 0
-119 -145 89 0
-119 -146 90 0
-119 -147 91 0
-119 -148 92 0
-119 -149 93 0
-119 -150 94 0
-120 -126 71 0
-120 -127 72 0
-120 -128 73 0
-120 -129 74 0
-120 -130 75 0
-120 -131 76 0
-120 -132 77 0
-120 -133 78 0
-120 -134 79 0
-120 -135 80 0
-120 -136 81 0
-120 -137 82 0
-120 -138 83 0
-120 -139 84 0
-120 -140 85 0
-120 -141 86 0
-120 -142 87 0
-120 -143 88 0
-120 -144 89 0
-120 -145 90 0
-120 -146 91 0
-120 -147 92 0
-120 -148 93 0
-120 -149 94 0
-120 -150 95 0
-121 -126 72 0
-121 -127 73 0
-121 -128 74 0
-121 -129 75 0
-121 -130 76 0
-121 -131 77 0
-121 -132 78 0
-121 -133 79 0
-121 -134 80 0
-121 -135 81 0
-121 -136 82 0
-121 -137 83 0
-121 -138 84 0
-121 -139 85 0
-121 -140 86 0
-121 -141 87 0
-121 -142 88 0
-121 -143 89 0
-121 -144 90 0
-121 -145 91 0
-121 -146 92 0
-121 -147 93 0
-121 -148 94 0
-121 -149 95 0
-121 -150 96 0
-122 -126 73 0
-122 -127 74 0
-122 -128 75 0
-122 -129 76 0
-122 -130 77 0
-122 -131 78 0
-122 -132 79 0
-122 -133 80 0
-122 -134 81 0
-122 -135 82 0
-122 -136 83 0
-122 -137 84 0
-122 -138 85 0
-122 -139 86 0
-122 -140 87 0
-122 -141 88 0
-122 -142 89 0
-122 -143 90 0
-122 -144 91 0
-122 -145 92 0
-122 -146 93 0
-122 -147 94 0
-122 -148 95 0
-122 -149 96 0
-122 -150 97 0
-123 -126 74 0
-123 -127 75 0
-123 -128 76 0
-123 -129 77 0
-123 -130 78 0
-123 -131 79 0
-123 -132 80 0
-123 -133 81 0
-123 -134 82 0
-123 -135 83 0
-123 -136 84 0
-123 -137 85 0
-123 -138 86 0
-123 -139 87 0
-123 -140 88 0
-123 -141 89 0
-123 -142 90 0
-123 -143 91 0
-123 -144 92 0
-123 -145 93 0
-123 -146 94 0
-123 -147 95 0
-123 -148 96 0
-123 -149 97 0
-123 -150 98 0
-124 -126 75 0
-124 -127 76 0
-124 -128 77 0
-124 -129 78 0
-124 -130 79 0
-124 -131 80 0
-124 -132 81 0
-124 -133 82 0
-124 -134 83 0
-124 -135 84 0
-124 -136 85 0
-124 -137 86 0
-124 -138 87 0
-124 -139 88 0
-124 -140 89 0
-124 -141 90 0
-124 -142 91 0
-124 -143 92 0
-124 -144 93 0
-124 -145 94 0
-124 -146 95 0
-124 -147 96 0
-124 -148 97 0
-124 -149 98 0
-124 -150 99 0
-125 -126 76 0
-125 -127 77 0
-125 -128 78 0
-125 -129 79 0
-125 -130 80 0
-125 -131 81 0
-125 -132 82 0
-125 -133 83 0
-125 -134 84 0
-125 -135 85 0
-125 -136 86 0
-125 -137 87 0
-125 -138 88 0
-125 -139 89 0
-125 -140 90 0
-125 -141 91 0
-125 -142 92 0
-125 -143 93 0
-125 -144 94 0
-125 -145 95 0
-125 -146 96 0
-125 -147 97 0
-125 -148 98 0
-125 -149 99 0
-125 -150 100 0
-164 126 0
-165 127 0
-166 128 0
-167 129 0
-168 130 0
-169 131 0
-170 132 0
-171 133 0
-172 134 0
-173 135 0
-174 136 0
-175 137 0
-151 126 0
-152 127 0
-153 128 0
-154 129 0
-155 130 0
-156 131 0
-157 132 0
-158 133 0
-159 134 0
-160 135 0
-161 136 0
-162 137 0
-163 138 0
-151 -164 127 0
-151 -165 128 0
-151 -166 129 0
-151 -167 130 0
-151 -168 131 0
-151 -169 132 0
-151 -170 133 0
-151 -171 134 0
-151 -172 135 0
-151 -173 136 0
-151 -174 137 0
-151 -175 138 0
-152 -164 128 0
-152 -165 129 0
-152 -166 130 0
-152 -167 131 0
-152 -168 132 0
-152 -169 133 0
-152 -170 134 0
-152 -171 135 0
-152 -172 136 0
-152 -173 137 0
-152 -174 138 0
-152 -175 139 0
-153 -164 129 0
-153 -165 130 0
-153 -166 131 0
-153 -167 132 0
-153 -168 133 0
-153 -169 134 0
-153 -170 135 0
-153 -171 136 0
-153 -172 137 0
-153 -173 138 0
-153 -174 139 0
-153 -175 140 0
-154 -164 130 0
-154 -165 131 0
-154 -166 132 0
-154 -167 133 0
-154 -168 134 0
-154 -169 135 0
-154 -170 136 0
-154 -171 137 0
-154 -172 138 0
-154 -173 139 0
-154 -174 140 0
-154 -175 141 0
-155 -164 131 0
-155 -165 132 0
-155 -166 133 0
-155 -167 134 0
-155 -168 135 0
-155 -169 136 0
-155 -170 137 0
-155 -171 138 0
-155 -172 139 0
-155 -173 140 0
-155 -174 141 0
-155 -175 142 0
-156 -164 132 0
-156 -165 133 0
-156 -166 134 0
-156 -167 135 0
-156 -168 136 0
-156 -169 137 0
-156 -170 138 0
-156 -171 139 0
-156 -172 140 0
-156 -173 141 0
-156 -174 142 0
-156 -175 143 0
-157 -164 133 0
-157 -165 134 0
-157 -166 135 0
-157 -167 136 0
-157 -168 137 0
-157 -169 138 0
-157 -170 139 0
-157 -171 140 0
-157 -172 141 0
-157 -173 142 0
-157 -174 143 0
-157 -175 144 0
-158 -164 134 0
-158 -165 135 0
-158 -166 136 0
-158 -167 137 0
-158 -168 138 0
-158 -169 139 0
-158 -170 140 0
-158 -171 141 0
-158 -172 142 0
-158 -173 143 0
-158 -174 144 0
-158 -175 145 0
-159 -164 135 0
-159 -165 136 0
-159 -166 137 0
-159 -167 138 0
-159 -168 139 0
-159 -169 140 0
-159 -170 141 0
-159 -171 142 0
-159 -172 143 0
-159 -173 144 0
-159 -174 145 0
-159 -175 146 0
-160 -164 136 0
-160 -165 137 0
-160 -166 138 0
-160 -167 139 0
-160 -168 140 0
-160 -169 141 0
-160 -170 142 0
-160 -171 143 0
-160 -172 144 0
-160 -173 145 0
-160 -174 146 0
-160 -175 147 0
-161 -164 137 0
-161 -165 138 0
-161 -166 139 0
-161 -167 140 0
-161 -168 141 0
-161 -169 142 0
-161 -170 143 0
-161 -171 144 0
-161 -172 145 0
-161 -173 146 0
-161 -174 147 0
-161 -175 148 0
-162 -164 138 0
-162 -165 139 0
-162 -166 140 0
-162 -167 141 0
-162 -168 142 0
-162 -169 143 0
-162 -170 144 0
-162 -171 145 0
-162 -172 146 0
-162 -173 147 0
-162 -174 148 0
-162 -175 149 0
-163 -164 139 0
-163 -165 140 0
-163 -166 141 0
-163 -167 142 0
-163 -168 143 0
-163 -169 144 0
-163 -170 145 0
-163 -171 146 0
-163 -172 147 0
-163 -173 148 0
-163 -174 149 0
-163 -175 150 0
-182 164 0
-183 165 0
-184 166 0
-185 167 0
-186 168 0
-187 169 0
-176 164 0
-177 165 0
-178 166 0
-179 167 0
-180 168 0
-181 169 0
-176 -182 165 0
-176 -183 166 0
-176 -184 167 0
-176 -185 168 0
-176 -186 169 0
-176 -187 170 0
-177 -182 166 0
-177 -183 167 0
-177 -184 168 0
-177 -185 169 0
-177 -186 170 0
-177 -187 171 0
-178 -182 167 0
-178 -183 168 0
-178 -184 169 0
-178 -185 170 0
-178 -186 171 0
-178 -187 172 0
-179 -182 168 0
-179 -183 169 0
-179 -184 170 0
-179 -185 171 0
-179 -186 172 0
-179 -187 173 0
-180 -182 169 0
-180 -183 170 0
-180 -184 171 0
-180 -185 172 0
-180 -186 173 0
-180 -187 174 0
-181 -182 170 0
-181 -183 171 0
-181 -184 172 0
-181 -185 173 0
-181 -186 174 0
-181 -187 175 0
-191 182 0
-192 183 0
-193 184 0
-188 182 0
-189 183 0
-190 184 0
-188 -191 183 0
-188 -192 184 0
-188 -193 185 0
-189 -191 184 0
-189 -192 185 0
-189 -193 186 0
-190 -191 185 0
-190 -192 186 0
-190 -193 187 0
50 191 0
-194 191 0
-195 192 0
-194 50 192 0
-195 50 193 0
49 194 0
48 194 0
48 49 195 0
47 188 0
-196 188 0
-197 189 0
-196 47 189 0
-197 47 190 0
46 196 0
45 196 0
45 46 197 0
-201 176 0
-202 177 0
-203 178 0
-198 176 0
-199 177 0
-200 178 0
-198 -201 177 0
-198 -202 178 0
-198 -203 179 0
-199 -201 178 0
-199 -202 179 0
-199 -203 180 0
-200 -201 179 0
-200 -202 180 0
-200 -203 181 0
44 201 0
-204 201 0
-205 202 0
-204 44 202 0
-205 44 203 0
43 204 0
42 204 0
42 43 205 0
41 198 0
-206 198 0
-207 199 0
-206 41 199 0
-207 41 200 0
40 206 0
39 206 0
39 40 207 0
-215 151 0
-216 152 0
-217 153 0
-218 154 0
-219 155 0
-220 156 0
-208 151 0
-209 152 0
-210 153 0
-211 154 0
-212 155 0
-213 156 0
-214 157 0
-208 -215 152 0
-208 -216 153 0
-208 -217 154 0
-208 -218 155 0
-208 -219 156 0
-208 -220 157 0
-209 -215 153 0
-209 -216 154 0
-209 -217 155 0
-209 -218 156 0
-209 -219 157 0
-209 -220 158 0
-210 -215 154 0
-210 -216 155 0
-210 -217 156 0
-210 -218 157 0
-210 -219 158 0
-210 -220 159 0
-211 -215 155 0
-211 -216 156 0
-211 -217 157 0
-211 -218 158 0
-211 -219 159 0
-211 -220 160 0
-212 -215 156 0
-212 -216 157 0
-212 -217 158 0
-212 -218 159 0
-212 -219 160 0
-212 -220 161 0
-213 -215 157 0
-213 -216 158 0
-213 -217 159 0
-213 -218 160 0
-213 -219 161 0
-213 -220 162 0
-214 -215 158 0
-214 -216 159 0
-214 -217 160 0
-214 -218 161 0
-214 -219 162 0
-214 -220 163 0
-224 215 0
-225 216 0
-226 217 0
-221 215 0
-222 216 0
-223 217 0
-221 -224 216 0
-221 -225 217 0
-221 -226 218 0
-222 -224 217 0
-222 -225 218 0
-222 -226 219 0
-223 -224 218 0
-223 -225 219 0
-223 -226 220 0
38 224 0
-227 224 0
-228 225 0
-227 38 225 0
-228 38 226 0
37 227 0
36 227 0
36 37 228 0
35 221 0
-229 221 0
-230 222 0
-229 35 222 0
-230 35 223 0
34 229 0
33 229 0
33 34 230 0
-235 208 0
-236 209 0
-237 210 0
-231 208 0
-232 209 0
-233 210 0
-234 211 0
-231 -235 209 0
-231 -236 210 0
-231 -237 211 0
-232 -235 210 0
-232 -236 211 0
-232 -237 212 0
-233 -235 211 0
-233 -236 212 0
-233 -237 213 0
-234 -235 212 0
-234 -236 213 0
-234 -237 214 0
32 235 0
-238 235 0
-239 236 0
-238 32 236 0
-239 32 237 0
31 238 0
30 238 0
30 31 239 0
-242 231 0
-243 232 0
-240 231 0
-241 232 0
-240 -242 232 0
-240 -243 233 0
-241 -242 233 0
-241 -243 234 0
29 242 0
28 242 0
28 29 243 0
27 240 0
26 240 0
26 27 241 0
-257 101 0
-258 102 0
-259 103 0
-260 104 0
-261 105 0
-262 106 0
-263 107 0
-264 108 0
-265 109 0
-266 110 0
-267 111 0
-268 112 0
-244 101 0
-245 102 0
-246 103 0
-247 104 0
-248 105 0
-249 106 0
-250 107 0
-251 108 0
-252 109 0
-253 110 0
-254 111 0
-255 112 0
-256 113 0
-244 -257 102 0
-244 -258 103 0
-244 -259 104 0
-244 -260 105 0
-244 -261 106 0
-244 -262 107 0
-244 -263 108 0
-244 -264 109 0
-244 -265 110 0
-244 -266 111 0
-244 -267 112 0
-244 -268 113 0
-245 -257 103 0
-245 -258 104 0
-245 -259 105 0
-245 -260 106 0
-245 -261 107 0
-245 -262 108 0
-245 -263 109 0
-245 -264 110 0
-245 -265 111 0
-245 -266 112 0
-245 -267 113 0
-245 -268 114 0
-246 -257 104 0
-246 -258 105 0
-246 -259 106 0
-246 -260 107 0
-246 -261 108 0
-246 -262 109 0
-246 -263 110 0
-246 -264 111 0
-246 -265 112 0
-246 -266 113 0
-246 -267 114 0
-246 -268 115 0
-247 -257 105 0
-247 -258 106 0
-247 -259 107 0
-247 -260 108 0
-247 -261 109 0
-247 -262 110 0
-247 -263 111 0
-247 -264 112 0
-247 -265 113 0
-247 -266 114 0
-247 -267 115 0
-247 -268 116 0
-248 -257 106 0
-248 -258 107 0
-248 -259 108 0
-248 -260 109 0
-248 -261 110 0
-248 -262 111 0
-248 -263 112 0
-248 -264 113 0
-248 -265 114 0
-248 -266 115 0
-248 -267 116 0
-248 -268 117 0
-249 -257 107 0
-249 -258 108 0
-249 -259 109 0
-249 -260 110 0
-249 -261 111 0
-249 -262 112 0
-249 -263 113 0
-249 -264 114 0
-249 -265 115 0
-249 -266 116 0
-249 -267 117 0
-249 -268 118 0
-250 -257 108 0
-250 -258 109 0
-250 -259 110 0
-250 -260 111 0
-250 -261 112 0
-250 -262 113 0
-250 -263 114 0
-250 -264 115 0
-250 -265 116 0
-250 -266 117 0
-250 -267 118 0
-250 -268 119 0
-251 -257 109 0
-251 -258 110 0
-251 -259 111 0
-251 -260 112 0
-251 -261 113 0
-251 -262 114 0
-251 -263 115 0
-251 -264 116 0
-251 -265 117 0
-251 -266 118 0
-251 -267 119 0
-251 -268 120 0
-252 -257 110 0
-252 -258 111 0
-252 -259 112 0
-252 -260 113 0
-252 -261 114 0
-252 -262 115 0
-252 -263 116 0
-252 -264 117 0
-252 -265 118 0
-252 -266 119 0
-252 -267 120 0
-252 -268 121 0
-253 -257 111 0
-253 -258 112 0
-253 -259 113 0
-253 -260 114 0
-253 -261 115 0
-253 -262 116 0
-253 -263 117 0
-253 -264 118 0
-253 -265 119 0
-253 -266 120 0
-253 -267 121 0
-253 -268 122 0
-254 -257 112 0
-254 -258 113 0
-254 -259 114 0
-254 -260 115 0
-254 -261 116 0
-254 -262 117 0
-254 -263 118 0
-254 -264 119 0
-254 -265 120 0
-254 -266 121 0
-254 -267 122 0
-254 -268 123 0
-255 -257 113 0
-255 -258 114 0
-255 -259 115 0
-255 -260 116 0
-255 -261 117 0
-255 -262 118 0
-255 -263 119 0
-255 -264 120 0
-255 -265 121 0
-255 -266 122 0
-255 -267 123 0
-255 -268 124 0
-256 -257 114 0
-256 -258 115 0
-256 -259 116 0
-256 -260 117 0
-256 -261 118 0
-256 -262 119 0
-256 -263 120 0
-256 -264 121 0
-256 -265 122 0
-256 -266 123 0
-256 -267 124 0
-256 -268 125 0
-275 257 0
-276 258 0
-277 259 0
-278 260 0
-279 261 0
-280 262 0
-269 257 0
-270 258 0
-271 259 0
-272 260 0
-273 261 0
-274 262 0
-269 -275 258 0
-269 -276 259 0
-269 -277 260 0
-269 -278 261 0
-269 -279 262 0
-269 -280 263 0
-270 -275 259 0
-270 -276 260 0
-270 -277 261 0
-270 -278 262 0
-270 -279 263 0
-270 -280 264 0
-271 -275 260 0
-271 -276 261 0
-271 -277 262 0
-271 -278 263 0
-271 -279 264 0
-271 -280 265 0
-272 -275 261 0
-272 -276 262 0
-272 -277 263 0
-272 -278 264 0
-272 -279 265 0
-272 -280 266 0
-273 -275 262 0
-273 -276 263 0
-273 -277 264 0
-273 -278 265 0
-273 -279 266 0
-273 -280 267 0
-274 -275 263 0
-274 -276 264 0
-274 -277 265 0
-274 -278 266 0
-274 -279 267 0
-274 -280 268 0
-284 275 0
-285 276 0
-286 277 0
-281 275 0
-282 276 0
-283 277 0
-281 -284 276 0
-281 -285 277 0
-281 -286 278 0
-282 -284 277 0
-282 -285 278 0
-282 -286 279 0
-283 -284 278 0
-283 -285 279 0
-283 -286 280 0
25 284 0
-287 284 0
-288 285 0
-287 25 285 0
-288 25 286 0
24 287 0
23 287 0
23 24 288 0
22 281 0
-289 281 0
-290 282 0
-289 22 282 0
-290 22 283 0
21 289 0
20 289 0
20 21 290 0
-294 269 0
-295 270 0
-296 271 0
-291 269 0
-292 270 0
-293 271 0
-291 -294 270 0
-291 -295 271 0
-291 -296 272 0
-292 -294 271 0
-292 -295 272 0
-292 -296 273 0
-293 -294 272 0
-293 -295 273 0
-293 -296 274 0
19 294 0
-297 294 0
-298 295 0
-297 19 295 0
-298 19 296 0
18 297 0
17 297 0
17 18 298 0
16 291 0
-299 291 0
-300 292 0
-299 16 292 0
-300 16 293 0
15 299 0
14 299 0
14 15 300 0
-308 244 0
-309 245 0
-310 246 0
-311 247 0
-312 248 0
-313 249 0
-301 244 0
-302 245 0
-303 246 0
-304 247 0
-305 248 0
-306 249 0
-307 250 0
-301 -308 245 0
-301 -309 246 0
-301 -310 247 0
-301 -311 248 0
-301 -312 249 0
-301 -313 250 0
-302 -308 246 0
-302 -309 247 0
-302 -310 248 0
-302 -311 249 0
-302 -312 250 0
-302 -313 251 0
-303 -308 247 0
-303 -309 248 0
-303 -310 249 0
-303 -311 250 0
-303 -312 251 0
-303 -313 252 0
-304 -308 248 0
-304 -309 249 0
-304 -310 250 0
-304 -311 251 0
-304 -312 252 0
-304 -313 253 0
-305 -308 249 0
-305 -309 250 0
-305 -310 251 0
-305 -311 252 0
-305 -312 253 0
-305 -313 254 0
-306 -308 250 0
-306 -309 251 0
-306 -310 252 0
-306 -311 253 0
-306 -312 254 0
-306 -313 255 0
-307 -308 251 0
-307 -309 252 0
-307 -310 253 0
-307 -311 254 0
-307 -312 255 0
-307 -313 256 0
-317 308 0
-318 309 0
-319 310 0
-314 308 0
-315 309 0
-316 310 0
-314 -317 309 0
-314 -318 310 0
-314 -319 311 0
-315 -317 310 0
-315 -318 311 0
-315 -319 312 0
-316 -317 311 0
-316 -318 312 0
-316 -319 313 0
13 317 0
-320 317 0
-321 318 0
-320 13 318 0
-321 13 319 0
12 320 0
11 320 0
11 12 321 0
10 314 0
-322 314 0
-323 315 0
-322 10 315 0
-323 10 316 0
9 322 0
8 322 0
8 9 323 0
-328 301 0
-329 302 0
-330 303 0
-324 301 0
-325 302 0
-326 303 0
-327 304 0
-324 -328 302 0
-324 -329 303 0
-324 -330 304 0
-325 -328 303 0
-325 -329 304 0
-325 -330 305 0
-326 -328 304 0
-326 -329 305 0
-326 -330 306 0
-327 -328 305 0
-327 -329 306 0
-327 -330 307 0
7 328 0
-331 328 0
-332 329 0
-331 7 329 0
-332 7 330 0
6 331 0
5 331 0
5 6 332 0
-335 324 0
-336 325 0
-333 324 0
-334 325 0
-333 -335 325 0
-333 -336 326 0
-334 -335 326 0
-334 -336 327 0
4 335 0
3 335 0
3 4 336 0
2 333 0
1 333 0
1 2 334 0
-89 0
